  18    0
0.2083 0.3244 0.3631 0.4018 0.4405 0.4792 0.5179 0.5566 0.5953 0.6340 0.6727 0.7114 0.7500 0.7980 0.8460 0.8940 0.9420 0.9817 
0.2579 0.1929 0.1785 0.1637 0.1482 0.1334 0.1207 0.1113 0.1053 0.1022 0.1007 0.0989 0.0965 0.0934 0.0908 0.0889 0.0877 0.0905 
COMMENT #1 
COMMENT #2 
                     AF NAME   847 847 847
        0.0263  0.0394  0.0525  0.0657  0.0788  0.0919  0.1051  0.9000
-180.0000  0.0000  0.0000  0.0000  0.0000  0.0000  0.0000  0.0000  0.0000
-170.0000  0.7452  0.7452  0.7452  0.7452  0.7452  0.7452  0.7452  0.7452
-165.0000  0.6757  0.6757  0.6757  0.6757  0.6757  0.6757  0.6757  0.6757
-160.0000  0.6471  0.6471  0.6471  0.6471  0.6471  0.6471  0.6471  0.6471
-135.0000  1.0000  1.0000  1.0000  1.0000  1.0000  1.0000  1.0000  1.0000
-90.0000 -0.0627 -0.0627 -0.0627 -0.0627 -0.0627 -0.0627 -0.0627 -0.0627
-30.0000 -0.9900 -0.9900 -0.9900 -0.9900 -0.9900 -0.9900 -0.9900 -0.9900
-23.0000 -0.8422 -0.8422 -0.8422 -0.8422 -0.8422 -0.8422 -0.8422 -0.8422
-16.0000 -1.0680 -1.0680 -1.0680 -1.0680 -1.0680 -1.0680 -1.0680 -1.0680
-15.0000 -1.1900 -1.1900 -1.1900 -1.1900 -1.1900 -1.1900 -1.1900 -1.1900
-14.0000 -1.3330 -1.3330 -1.3330 -1.3330 -1.3330 -1.3330 -1.3330 -1.3330
-13.0000 -1.3340 -1.3340 -1.3340 -1.3340 -1.3340 -1.3340 -1.3340 -1.3340
-12.0000 -1.2550 -1.2550 -1.2550 -1.2550 -1.2550 -1.2550 -1.2550 -1.2550
-11.0000 -1.1610 -1.1610 -1.1610 -1.1610 -1.1610 -1.1610 -1.1610 -1.1610
-10.0000 -1.0550 -1.0550 -1.0550 -1.0550 -1.0550 -1.0550 -1.0550 -1.0550
 -9.0000 -0.9495 -0.9495 -0.9495 -0.9495 -0.9495 -0.9495 -0.9495 -0.9495
 -8.0000 -0.8440 -0.8440 -0.8440 -0.8440 -0.8440 -0.8440 -0.8440 -0.8440
 -7.0000 -0.7385 -0.7385 -0.7385 -0.7385 -0.7385 -0.7385 -0.7385 -0.7385
 -6.0000 -0.6330 -0.6330 -0.6330 -0.6330 -0.6330 -0.6330 -0.6330 -0.6330
 -5.0000 -0.0188 -0.2468 -0.2528 -0.2383 -0.2254 -0.2157 -0.2095 -0.2095
 -4.0000  0.0304 -0.1650 -0.1693 -0.1490 -0.1319 -0.1198 -0.1116 -0.1116
 -3.0000  0.1285 -0.0921 -0.0876 -0.0609 -0.0389 -0.0236 -0.0130 -0.0130
 -2.0000  0.2492 -0.0312 -0.0150  0.0226  0.0520  0.0718  0.0853  0.0853
 -1.0000  0.4269  0.0426  0.0515  0.1011  0.1393  0.1650  0.1819  0.1819
  0.0000  0.4542  0.1579  0.1101  0.1687  0.2185  0.2506  0.2731  0.2731
  1.0000  0.4282  0.4032  0.1899  0.2268  0.2835  0.3261  0.3551  0.3551
  2.0000  0.3575  0.4722  0.4371  0.3245  0.3401  0.3833  0.4199  0.4199
  3.0000  0.3265  0.3888  0.4545  0.5419  0.5240  0.4870  0.4831  0.4831
  4.0000  0.3806  0.4410  0.4855  0.5241  0.5597  0.5901  0.6123  0.6123
  5.0000  0.4411  0.5072  0.5552  0.5961  0.6334  0.6652  0.6877  0.6877
  6.0000  0.4987  0.5698  0.6210  0.6642  0.7036  0.7381  0.7632  0.7632
  7.0000  0.5507  0.6272  0.6812  0.7265  0.7677  0.8049  0.8325  0.8325
  8.0000  0.5959  0.6787  0.7353  0.7824  0.8252  0.8647  0.8952  0.8952
  9.0000  0.6333  0.7237  0.7830  0.8315  0.8754  0.9169  0.9504  0.9504
 10.0000  0.6606  0.7617  0.8246  0.8743  0.9190  0.9612  0.9974  0.9974
 11.0000  0.6779  0.7916  0.8592  0.9105  0.9560  0.9984  1.0370  1.0370
 12.0000  0.6881  0.8123  0.8858  0.9395  0.9856  1.0283  1.0685  1.0685
 13.0000  0.7005  0.8234  0.9045  0.9610  1.0078  1.0506  1.0913  1.0913
 16.0000  1.0680  1.0680  1.0680  1.0680  1.0680  1.0680  1.0680  1.0680
 23.0000  0.8422  0.8422  0.8422  0.8422  0.8422  0.8422  0.8422  0.8422
 30.0000  0.9900  0.9900  0.9900  0.9900  0.9900  0.9900  0.9900  0.9900
 90.0000  0.0628  0.0628  0.0628  0.0628  0.0628  0.0628  0.0628  0.0628
135.0000 -1.0000 -1.0000 -1.0000 -1.0000 -1.0000 -1.0000 -1.0000 -1.0000
160.0000 -0.6471 -0.6471 -0.6471 -0.6471 -0.6471 -0.6471 -0.6471 -0.6471
165.0000 -0.6757 -0.6757 -0.6757 -0.6757 -0.6757 -0.6757 -0.6757 -0.6757
170.0000 -0.7452 -0.7452 -0.7452 -0.7452 -0.7452 -0.7452 -0.7452 -0.7452
180.0000  0.0000  0.0000  0.0000  0.0000  0.0000  0.0000  0.0000  0.0000
        0.0263  0.0394  0.0525  0.0657  0.0788  0.0919  0.1051  0.9000
-180.0000  0.0220  0.0220  0.0220  0.0220  0.0220  0.0220  0.0220  0.0220
-170.0000  0.1320  0.1320  0.1320  0.1320  0.1320  0.1320  0.1320  0.1320
-165.0000  0.2420  0.2420  0.2420  0.2420  0.2420  0.2420  0.2420  0.2420
-160.0000  0.3020  0.3020  0.3020  0.3020  0.3020  0.3020  0.3020  0.3020
-135.0000  1.1945  1.1945  1.1945  1.1945  1.1945  1.1945  1.1945  1.1945
-90.0000  2.0220  2.0220  2.0220  2.0220  2.0220  2.0220  2.0220  2.0220
-30.0000  0.5620  0.5620  0.5620  0.5620  0.5620  0.5620  0.5620  0.5620
-23.0000  0.3831  0.3831  0.3831  0.3831  0.3831  0.3831  0.3831  0.3831
-16.0000  0.1550  0.1550  0.1550  0.1550  0.1550  0.1550  0.1550  0.1550
-15.0000  0.1020  0.1020  0.1020  0.1020  0.1020  0.1020  0.1020  0.1020
-14.0000  0.0380  0.0380  0.0380  0.0380  0.0380  0.0380  0.0380  0.0380
-13.0000  0.0264  0.0264  0.0264  0.0264  0.0264  0.0264  0.0264  0.0264
-12.0000  0.0220  0.0220  0.0220  0.0220  0.0220  0.0220  0.0220  0.0220
-11.0000  0.0196  0.0196  0.0196  0.0196  0.0196  0.0196  0.0196  0.0196
-10.0000  0.0174  0.0174  0.0174  0.0174  0.0174  0.0174  0.0174  0.0174
 -9.0000  0.0154  0.0154  0.0154  0.0154  0.0154  0.0154  0.0154  0.0154
 -8.0000  0.0138  0.0138  0.0138  0.0138  0.0138  0.0138  0.0138  0.0138
 -7.0000  0.0122  0.0122  0.0122  0.0122  0.0122  0.0122  0.0122  0.0122
 -6.0000  0.0110  0.0110  0.0110  0.0110  0.0110  0.0110  0.0110  0.0110
 -5.0000  0.0697  0.0445  0.0337  0.0288  0.0258  0.0238  0.0223  0.0223
 -4.0000  0.0630  0.0452  0.0341  0.0290  0.0258  0.0237  0.0222  0.0222
 -3.0000  0.0570  0.0441  0.0346  0.0293  0.0261  0.0239  0.0223  0.0223
 -2.0000  0.0517  0.0420  0.0339  0.0291  0.0260  0.0238  0.0223  0.0223
 -1.0000  0.0463  0.0403  0.0331  0.0288  0.0259  0.0238  0.0222  0.0222
  0.0000  0.0449  0.0393  0.0325  0.0287  0.0259  0.0239  0.0225  0.0225
  1.0000  0.0444  0.0387  0.0324  0.0287  0.0261  0.0242  0.0227  0.0227
  2.0000  0.0440  0.0381  0.0337  0.0292  0.0264  0.0245  0.0232  0.0232
  3.0000  0.0446  0.0377  0.0335  0.0307  0.0279  0.0254  0.0238  0.0238
  4.0000  0.0477  0.0402  0.0354  0.0317  0.0287  0.0265  0.0250  0.0250
  5.0000  0.0519  0.0439  0.0388  0.0347  0.0314  0.0288  0.0270  0.0270
  6.0000  0.0570  0.0484  0.0429  0.0385  0.0349  0.0319  0.0297  0.0297
  7.0000  0.0630  0.0536  0.0477  0.0430  0.0390  0.0357  0.0332  0.0332
  8.0000  0.0702  0.0597  0.0533  0.0483  0.0440  0.0402  0.0375  0.0375
  9.0000  0.0789  0.0669  0.0598  0.0545  0.0498  0.0457  0.0425  0.0425
 10.0000  0.0894  0.0752  0.0674  0.0616  0.0567  0.0522  0.0486  0.0486
 11.0000  0.1020  0.0851  0.0762  0.0699  0.0646  0.0599  0.0557  0.0557
 12.0000  0.1162  0.0966  0.0863  0.0795  0.0739  0.0688  0.0642  0.0642
 13.0000  0.1304  0.1101  0.0980  0.0904  0.0844  0.0791  0.0743  0.0743
 16.0000  0.1550  0.1550  0.1550  0.1550  0.1550  0.1550  0.1550  0.1550
 23.0000  0.3831  0.3831  0.3831  0.3831  0.3831  0.3831  0.3831  0.3831
 30.0000  0.5620  0.5620  0.5620  0.5620  0.5620  0.5620  0.5620  0.5620
 90.0000  2.0220  2.0220  2.0220  2.0220  2.0220  2.0220  2.0220  2.0220
135.0000  1.1945  1.1945  1.1945  1.1945  1.1945  1.1945  1.1945  1.1945
160.0000  0.3020  0.3020  0.3020  0.3020  0.3020  0.3020  0.3020  0.3020
165.0000  0.2420  0.2420  0.2420  0.2420  0.2420  0.2420  0.2420  0.2420
170.0000  0.1320  0.1320  0.1320  0.1320  0.1320  0.1320  0.1320  0.1320
180.0000  0.0220  0.0220  0.0220  0.0220  0.0220  0.0220  0.0220  0.0220
        0.0263  0.0394  0.0525  0.0657  0.0788  0.0919  0.1051  0.9000
-180.0000  0.0000  0.0000  0.0000  0.0000  0.0000  0.0000  0.0000  0.0000
-170.0000  0.4000  0.4000  0.4000  0.4000  0.4000  0.4000  0.4000  0.4000
-165.0000  0.3000  0.3000  0.3000  0.3000  0.3000  0.3000  0.3000  0.3000
-160.0000  0.3000  0.3000  0.3000  0.3000  0.3000  0.3000  0.3000  0.3000
-135.0000  0.5000  0.5000  0.5000  0.5000  0.5000  0.5000  0.5000  0.5000
-90.0000  0.5000  0.5000  0.5000  0.5000  0.5000  0.5000  0.5000  0.5000
-30.0000  0.1740  0.1740  0.1740  0.1740  0.1740  0.1740  0.1740  0.1740
-23.0000  0.1120  0.1120  0.1120  0.1120  0.1120  0.1120  0.1120  0.1120
-16.0000  0.0730  0.0730  0.0730  0.0730  0.0730  0.0730  0.0730  0.0730
-15.0000  0.0540  0.0540  0.0540  0.0540  0.0540  0.0540  0.0540  0.0540
-14.0000  0.0000  0.0000  0.0000  0.0000  0.0000  0.0000  0.0000  0.0000
-13.0000  0.0000  0.0000  0.0000  0.0000  0.0000  0.0000  0.0000  0.0000
-12.0000  0.0000  0.0000  0.0000  0.0000  0.0000  0.0000  0.0000  0.0000
-11.0000  0.0000  0.0000  0.0000  0.0000  0.0000  0.0000  0.0000  0.0000
-10.0000  0.0000  0.0000  0.0000  0.0000  0.0000  0.0000  0.0000  0.0000
 -9.0000  0.0000  0.0000  0.0000  0.0000  0.0000  0.0000  0.0000  0.0000
 -8.0000  0.0000  0.0000  0.0000  0.0000  0.0000  0.0000  0.0000  0.0000
 -7.0000  0.0000  0.0000  0.0000  0.0000  0.0000  0.0000  0.0000  0.0000
 -6.0000  0.0000  0.0000  0.0000  0.0000  0.0000  0.0000  0.0000  0.0000
 -5.0000 -0.0385 -0.0487 -0.0587 -0.0642 -0.0677 -0.0699 -0.0714 -0.0714
 -4.0000 -0.0342 -0.0365 -0.0503 -0.0582 -0.0631 -0.0661 -0.0682 -0.0682
 -3.0000 -0.0372 -0.0261 -0.0407 -0.0511 -0.0577 -0.0619 -0.0648 -0.0648
 -2.0000 -0.0464 -0.0172 -0.0322 -0.0447 -0.0529 -0.0580 -0.0614 -0.0614
 -1.0000 -0.0690 -0.0109 -0.0239 -0.0381 -0.0479 -0.0542 -0.0582 -0.0582
  0.0000 -0.0654 -0.0134 -0.0141 -0.0291 -0.0412 -0.0486 -0.0539 -0.0539
  1.0000 -0.0530 -0.0430 -0.0088 -0.0192 -0.0320 -0.0412 -0.0477 -0.0477
  2.0000 -0.0345 -0.0469 -0.0368 -0.0173 -0.0213 -0.0305 -0.0383 -0.0383
  3.0000 -0.0216 -0.0259 -0.0323 -0.0425 -0.0369 -0.0295 -0.0288 -0.0288
  4.0000 -0.0203 -0.0239 -0.0270 -0.0297 -0.0325 -0.0352 -0.0373 -0.0373
  5.0000 -0.0199 -0.0236 -0.0267 -0.0294 -0.0320 -0.0344 -0.0363 -0.0363
  6.0000 -0.0198 -0.0232 -0.0262 -0.0287 -0.0311 -0.0333 -0.0352 -0.0352
  7.0000 -0.0199 -0.0229 -0.0256 -0.0279 -0.0301 -0.0321 -0.0338 -0.0338
  8.0000 -0.0204 -0.0228 -0.0251 -0.0272 -0.0290 -0.0308 -0.0324 -0.0324
  9.0000 -0.0215 -0.0230 -0.0249 -0.0266 -0.0282 -0.0297 -0.0310 -0.0310
 10.0000 -0.0236 -0.0238 -0.0252 -0.0265 -0.0277 -0.0288 -0.0299 -0.0299
 11.0000 -0.0268 -0.0254 -0.0260 -0.0269 -0.0278 -0.0285 -0.0293 -0.0293
 12.0000 -0.0311 -0.0278 -0.0276 -0.0280 -0.0285 -0.0289 -0.0293 -0.0293
 13.0000 -0.0361 -0.0315 -0.0300 -0.0298 -0.0299 -0.0300 -0.0301 -0.0301
 16.0000 -0.0730 -0.0730 -0.0730 -0.0730 -0.0730 -0.0730 -0.0730 -0.0730
 23.0000 -0.1120 -0.1120 -0.1120 -0.1120 -0.1120 -0.1120 -0.1120 -0.1120
 30.0000 -0.1740 -0.1740 -0.1740 -0.1740 -0.1740 -0.1740 -0.1740 -0.1740
 90.0000 -0.5000 -0.5000 -0.5000 -0.5000 -0.5000 -0.5000 -0.5000 -0.5000
135.0000 -0.5000 -0.5000 -0.5000 -0.5000 -0.5000 -0.5000 -0.5000 -0.5000
160.0000 -0.3000 -0.3000 -0.3000 -0.3000 -0.3000 -0.3000 -0.3000 -0.3000
165.0000 -0.3000 -0.3000 -0.3000 -0.3000 -0.3000 -0.3000 -0.3000 -0.3000
170.0000 -0.4000 -0.4000 -0.4000 -0.4000 -0.4000 -0.4000 -0.4000 -0.4000
180.0000  0.0000  0.0000  0.0000  0.0000  0.0000  0.0000  0.0000  0.0000
COMMENT #1 
COMMENT #2 
                     AF NAME   847 847 847
        0.0298  0.0447  0.0597  0.0746  0.0895  0.1044  0.1193  0.9000
-180.0000  0.0000  0.0000  0.0000  0.0000  0.0000  0.0000  0.0000  0.0000
-170.0000  0.7452  0.7452  0.7452  0.7452  0.7452  0.7452  0.7452  0.7452
-165.0000  0.6757  0.6757  0.6757  0.6757  0.6757  0.6757  0.6757  0.6757
-160.0000  0.6471  0.6471  0.6471  0.6471  0.6471  0.6471  0.6471  0.6471
-135.0000  1.0000  1.0000  1.0000  1.0000  1.0000  1.0000  1.0000  1.0000
-90.0000 -0.0627 -0.0627 -0.0627 -0.0627 -0.0627 -0.0627 -0.0627 -0.0627
-30.0000 -0.9900 -0.9900 -0.9900 -0.9900 -0.9900 -0.9900 -0.9900 -0.9900
-23.0000 -0.8422 -0.8422 -0.8422 -0.8422 -0.8422 -0.8422 -0.8422 -0.8422
-16.0000 -1.0680 -1.0680 -1.0680 -1.0680 -1.0680 -1.0680 -1.0680 -1.0680
-15.0000 -1.1900 -1.1900 -1.1900 -1.1900 -1.1900 -1.1900 -1.1900 -1.1900
-14.0000 -1.3330 -1.3330 -1.3330 -1.3330 -1.3330 -1.3330 -1.3330 -1.3330
-13.0000 -1.3340 -1.3340 -1.3340 -1.3340 -1.3340 -1.3340 -1.3340 -1.3340
-12.0000 -1.2550 -1.2550 -1.2550 -1.2550 -1.2550 -1.2550 -1.2550 -1.2550
-11.0000 -1.1610 -1.1610 -1.1610 -1.1610 -1.1610 -1.1610 -1.1610 -1.1610
-10.0000 -1.0550 -1.0550 -1.0550 -1.0550 -1.0550 -1.0550 -1.0550 -1.0550
 -9.0000 -0.9495 -0.9495 -0.9495 -0.9495 -0.9495 -0.9495 -0.9495 -0.9495
 -8.0000 -0.8440 -0.8440 -0.8440 -0.8440 -0.8440 -0.8440 -0.8440 -0.8440
 -7.0000 -0.7385 -0.7385 -0.7385 -0.7385 -0.7385 -0.7385 -0.7385 -0.7385
 -6.0000 -0.6330 -0.6330 -0.6330 -0.6330 -0.6330 -0.6330 -0.6330 -0.6330
 -5.0000 -0.2237 -0.2736 -0.2542 -0.2380 -0.2280 -0.2219 -0.2184 -0.2184
 -4.0000 -0.1276 -0.1869 -0.1637 -0.1430 -0.1301 -0.1220 -0.1168 -0.1168
 -3.0000 -0.0397 -0.1095 -0.0746 -0.0480 -0.0312 -0.0204 -0.0132 -0.0132
 -2.0000  0.0936 -0.0322  0.0107  0.0456  0.0675  0.0811  0.0901  0.0901
 -1.0000  0.2913  0.0431  0.0908  0.1349  0.1635  0.1812  0.1926  0.1926
  0.0000  0.4472  0.1529  0.1633  0.2157  0.2513  0.2746  0.2900  0.2900
  1.0000  0.4408  0.4132  0.2556  0.2866  0.3300  0.3598  0.3805  0.3805
  2.0000  0.3916  0.5065  0.5116  0.4109  0.4024  0.4299  0.4564  0.4564
  3.0000  0.3893  0.4493  0.5160  0.6082  0.6071  0.5618  0.5422  0.5422
  4.0000  0.4521  0.5119  0.5596  0.6023  0.6337  0.6543  0.6680  0.6680
  5.0000  0.5183  0.5828  0.6331  0.6776  0.7107  0.7322  0.7463  0.7463
  6.0000  0.5812  0.6503  0.7036  0.7505  0.7871  0.8112  0.8273  0.8273
  7.0000  0.6384  0.7125  0.7687  0.8182  0.8582  0.8848  0.9030  0.9030
  8.0000  0.6891  0.7684  0.8275  0.8795  0.9229  0.9525  0.9728  0.9728
  9.0000  0.7313  0.8169  0.8790  0.9332  0.9803  1.0131  1.0359  1.0359
 10.0000  0.7643  0.8574  0.9224  0.9787  1.0291  1.0656  1.0911  1.0911
 11.0000  0.7863  0.8899  0.9578  1.0155  1.0684  1.1089  1.1376  1.1376
 12.0000  0.7965  0.9126  0.9849  1.0441  1.0982  1.1429  1.1751  1.1751
 13.0000  0.7977  0.9251  1.0030  1.0640  1.1187  1.1674  1.2036  1.2036
 16.0000  1.0680  1.0680  1.0680  1.0680  1.0680  1.0680  1.0680  1.0680
 23.0000  0.8422  0.8422  0.8422  0.8422  0.8422  0.8422  0.8422  0.8422
 30.0000  0.9900  0.9900  0.9900  0.9900  0.9900  0.9900  0.9900  0.9900
 90.0000  0.0628  0.0628  0.0628  0.0628  0.0628  0.0628  0.0628  0.0628
135.0000 -1.0000 -1.0000 -1.0000 -1.0000 -1.0000 -1.0000 -1.0000 -1.0000
160.0000 -0.6471 -0.6471 -0.6471 -0.6471 -0.6471 -0.6471 -0.6471 -0.6471
165.0000 -0.6757 -0.6757 -0.6757 -0.6757 -0.6757 -0.6757 -0.6757 -0.6757
170.0000 -0.7452 -0.7452 -0.7452 -0.7452 -0.7452 -0.7452 -0.7452 -0.7452
180.0000  0.0000  0.0000  0.0000  0.0000  0.0000  0.0000  0.0000  0.0000
        0.0298  0.0447  0.0597  0.0746  0.0895  0.1044  0.1193  0.9000
-180.0000  0.0220  0.0220  0.0220  0.0220  0.0220  0.0220  0.0220  0.0220
-170.0000  0.1320  0.1320  0.1320  0.1320  0.1320  0.1320  0.1320  0.1320
-165.0000  0.2420  0.2420  0.2420  0.2420  0.2420  0.2420  0.2420  0.2420
-160.0000  0.3020  0.3020  0.3020  0.3020  0.3020  0.3020  0.3020  0.3020
-135.0000  1.1945  1.1945  1.1945  1.1945  1.1945  1.1945  1.1945  1.1945
-90.0000  2.0220  2.0220  2.0220  2.0220  2.0220  2.0220  2.0220  2.0220
-30.0000  0.5620  0.5620  0.5620  0.5620  0.5620  0.5620  0.5620  0.5620
-23.0000  0.3831  0.3831  0.3831  0.3831  0.3831  0.3831  0.3831  0.3831
-16.0000  0.1550  0.1550  0.1550  0.1550  0.1550  0.1550  0.1550  0.1550
-15.0000  0.1020  0.1020  0.1020  0.1020  0.1020  0.1020  0.1020  0.1020
-14.0000  0.0380  0.0380  0.0380  0.0380  0.0380  0.0380  0.0380  0.0380
-13.0000  0.0264  0.0264  0.0264  0.0264  0.0264  0.0264  0.0264  0.0264
-12.0000  0.0220  0.0220  0.0220  0.0220  0.0220  0.0220  0.0220  0.0220
-11.0000  0.0196  0.0196  0.0196  0.0196  0.0196  0.0196  0.0196  0.0196
-10.0000  0.0174  0.0174  0.0174  0.0174  0.0174  0.0174  0.0174  0.0174
 -9.0000  0.0154  0.0154  0.0154  0.0154  0.0154  0.0154  0.0154  0.0154
 -8.0000  0.0138  0.0138  0.0138  0.0138  0.0138  0.0138  0.0138  0.0138
 -7.0000  0.0122  0.0122  0.0122  0.0122  0.0122  0.0122  0.0122  0.0122
 -6.0000  0.0110  0.0110  0.0110  0.0110  0.0110  0.0110  0.0110  0.0110
 -5.0000  0.0544  0.0345  0.0283  0.0249  0.0227  0.0211  0.0200  0.0200
 -4.0000  0.0529  0.0355  0.0283  0.0248  0.0225  0.0209  0.0197  0.0197
 -3.0000  0.0493  0.0352  0.0287  0.0249  0.0226  0.0209  0.0197  0.0197
 -2.0000  0.0457  0.0346  0.0285  0.0248  0.0225  0.0209  0.0197  0.0197
 -1.0000  0.0418  0.0336  0.0281  0.0247  0.0224  0.0208  0.0197  0.0197
  0.0000  0.0385  0.0329  0.0278  0.0247  0.0226  0.0210  0.0198  0.0198
  1.0000  0.0377  0.0328  0.0277  0.0247  0.0227  0.0212  0.0201  0.0201
  2.0000  0.0370  0.0320  0.0286  0.0251  0.0228  0.0215  0.0204  0.0204
  3.0000  0.0377  0.0317  0.0280  0.0259  0.0240  0.0221  0.0209  0.0209
  4.0000  0.0404  0.0338  0.0294  0.0262  0.0241  0.0227  0.0216  0.0216
  5.0000  0.0439  0.0367  0.0319  0.0283  0.0258  0.0241  0.0229  0.0229
  6.0000  0.0482  0.0405  0.0351  0.0310  0.0281  0.0262  0.0249  0.0249
  7.0000  0.0534  0.0449  0.0391  0.0345  0.0311  0.0289  0.0274  0.0274
  8.0000  0.0596  0.0502  0.0439  0.0388  0.0348  0.0323  0.0306  0.0306
  9.0000  0.0671  0.0565  0.0496  0.0440  0.0395  0.0365  0.0345  0.0345
 10.0000  0.0761  0.0640  0.0564  0.0503  0.0451  0.0416  0.0394  0.0394
 11.0000  0.0873  0.0728  0.0644  0.0578  0.0520  0.0479  0.0452  0.0452
 12.0000  0.1008  0.0834  0.0740  0.0667  0.0604  0.0555  0.0523  0.0523
 13.0000  0.1165  0.0961  0.0852  0.0772  0.0705  0.0648  0.0609  0.0609
 16.0000  0.1550  0.1550  0.1550  0.1550  0.1550  0.1550  0.1550  0.1550
 23.0000  0.3831  0.3831  0.3831  0.3831  0.3831  0.3831  0.3831  0.3831
 30.0000  0.5620  0.5620  0.5620  0.5620  0.5620  0.5620  0.5620  0.5620
 90.0000  2.0220  2.0220  2.0220  2.0220  2.0220  2.0220  2.0220  2.0220
135.0000  1.1945  1.1945  1.1945  1.1945  1.1945  1.1945  1.1945  1.1945
160.0000  0.3020  0.3020  0.3020  0.3020  0.3020  0.3020  0.3020  0.3020
165.0000  0.2420  0.2420  0.2420  0.2420  0.2420  0.2420  0.2420  0.2420
170.0000  0.1320  0.1320  0.1320  0.1320  0.1320  0.1320  0.1320  0.1320
180.0000  0.0220  0.0220  0.0220  0.0220  0.0220  0.0220  0.0220  0.0220
        0.0298  0.0447  0.0597  0.0746  0.0895  0.1044  0.1193  0.9000
-180.0000  0.0000  0.0000  0.0000  0.0000  0.0000  0.0000  0.0000  0.0000
-170.0000  0.4000  0.4000  0.4000  0.4000  0.4000  0.4000  0.4000  0.4000
-165.0000  0.3000  0.3000  0.3000  0.3000  0.3000  0.3000  0.3000  0.3000
-160.0000  0.3000  0.3000  0.3000  0.3000  0.3000  0.3000  0.3000  0.3000
-135.0000  0.5000  0.5000  0.5000  0.5000  0.5000  0.5000  0.5000  0.5000
-90.0000  0.5000  0.5000  0.5000  0.5000  0.5000  0.5000  0.5000  0.5000
-30.0000  0.1740  0.1740  0.1740  0.1740  0.1740  0.1740  0.1740  0.1740
-23.0000  0.1120  0.1120  0.1120  0.1120  0.1120  0.1120  0.1120  0.1120
-16.0000  0.0730  0.0730  0.0730  0.0730  0.0730  0.0730  0.0730  0.0730
-15.0000  0.0540  0.0540  0.0540  0.0540  0.0540  0.0540  0.0540  0.0540
-14.0000  0.0000  0.0000  0.0000  0.0000  0.0000  0.0000  0.0000  0.0000
-13.0000  0.0000  0.0000  0.0000  0.0000  0.0000  0.0000  0.0000  0.0000
-12.0000  0.0000  0.0000  0.0000  0.0000  0.0000  0.0000  0.0000  0.0000
-11.0000  0.0000  0.0000  0.0000  0.0000  0.0000  0.0000  0.0000  0.0000
-10.0000  0.0000  0.0000  0.0000  0.0000  0.0000  0.0000  0.0000  0.0000
 -9.0000  0.0000  0.0000  0.0000  0.0000  0.0000  0.0000  0.0000  0.0000
 -8.0000  0.0000  0.0000  0.0000  0.0000  0.0000  0.0000  0.0000  0.0000
 -7.0000  0.0000  0.0000  0.0000  0.0000  0.0000  0.0000  0.0000  0.0000
 -6.0000  0.0000  0.0000  0.0000  0.0000  0.0000  0.0000  0.0000  0.0000
 -5.0000 -0.0382 -0.0563 -0.0633 -0.0673 -0.0697 -0.0711 -0.0720 -0.0720
 -4.0000 -0.0272 -0.0456 -0.0570 -0.0628 -0.0662 -0.0683 -0.0696 -0.0696
 -3.0000 -0.0218 -0.0352 -0.0494 -0.0577 -0.0623 -0.0653 -0.0672 -0.0672
 -2.0000 -0.0270 -0.0256 -0.0420 -0.0526 -0.0587 -0.0623 -0.0646 -0.0646
 -1.0000 -0.0481 -0.0175 -0.0348 -0.0469 -0.0546 -0.0592 -0.0621 -0.0621
  0.0000 -0.0666 -0.0164 -0.0256 -0.0397 -0.0486 -0.0545 -0.0584 -0.0584
  1.0000 -0.0561 -0.0469 -0.0212 -0.0304 -0.0411 -0.0482 -0.0533 -0.0533
  2.0000 -0.0381 -0.0529 -0.0506 -0.0324 -0.0320 -0.0388 -0.0451 -0.0451
  3.0000 -0.0264 -0.0318 -0.0398 -0.0532 -0.0513 -0.0426 -0.0391 -0.0391
  4.0000 -0.0244 -0.0290 -0.0333 -0.0377 -0.0414 -0.0439 -0.0455 -0.0455
  5.0000 -0.0234 -0.0277 -0.0315 -0.0354 -0.0387 -0.0410 -0.0426 -0.0426
  6.0000 -0.0225 -0.0265 -0.0300 -0.0333 -0.0363 -0.0386 -0.0402 -0.0402
  7.0000 -0.0220 -0.0255 -0.0286 -0.0315 -0.0341 -0.0362 -0.0378 -0.0378
  8.0000 -0.0217 -0.0247 -0.0274 -0.0298 -0.0321 -0.0340 -0.0355 -0.0355
  9.0000 -0.0219 -0.0242 -0.0264 -0.0284 -0.0303 -0.0320 -0.0334 -0.0334
 10.0000 -0.0229 -0.0241 -0.0258 -0.0273 -0.0288 -0.0303 -0.0315 -0.0315
 11.0000 -0.0250 -0.0248 -0.0258 -0.0267 -0.0277 -0.0288 -0.0299 -0.0299
 12.0000 -0.0286 -0.0264 -0.0266 -0.0270 -0.0274 -0.0280 -0.0287 -0.0287
 13.0000 -0.0336 -0.0293 -0.0284 -0.0281 -0.0280 -0.0281 -0.0284 -0.0284
 16.0000 -0.0730 -0.0730 -0.0730 -0.0730 -0.0730 -0.0730 -0.0730 -0.0730
 23.0000 -0.1120 -0.1120 -0.1120 -0.1120 -0.1120 -0.1120 -0.1120 -0.1120
 30.0000 -0.1740 -0.1740 -0.1740 -0.1740 -0.1740 -0.1740 -0.1740 -0.1740
 90.0000 -0.5000 -0.5000 -0.5000 -0.5000 -0.5000 -0.5000 -0.5000 -0.5000
135.0000 -0.5000 -0.5000 -0.5000 -0.5000 -0.5000 -0.5000 -0.5000 -0.5000
160.0000 -0.3000 -0.3000 -0.3000 -0.3000 -0.3000 -0.3000 -0.3000 -0.3000
165.0000 -0.3000 -0.3000 -0.3000 -0.3000 -0.3000 -0.3000 -0.3000 -0.3000
170.0000 -0.4000 -0.4000 -0.4000 -0.4000 -0.4000 -0.4000 -0.4000 -0.4000
180.0000  0.0000  0.0000  0.0000  0.0000  0.0000  0.0000  0.0000  0.0000
COMMENT #1 
COMMENT #2 
                     AF NAME   847 847 847
        0.0334  0.0501  0.0668  0.0835  0.1002  0.1168  0.1335  0.9000
-180.0000  0.0000  0.0000  0.0000  0.0000  0.0000  0.0000  0.0000  0.0000
-170.0000  0.7452  0.7452  0.7452  0.7452  0.7452  0.7452  0.7452  0.7452
-165.0000  0.6757  0.6757  0.6757  0.6757  0.6757  0.6757  0.6757  0.6757
-160.0000  0.6471  0.6471  0.6471  0.6471  0.6471  0.6471  0.6471  0.6471
-135.0000  1.0000  1.0000  1.0000  1.0000  1.0000  1.0000  1.0000  1.0000
-90.0000 -0.0627 -0.0627 -0.0627 -0.0627 -0.0627 -0.0627 -0.0627 -0.0627
-30.0000 -0.9900 -0.9900 -0.9900 -0.9900 -0.9900 -0.9900 -0.9900 -0.9900
-23.0000 -0.8422 -0.8422 -0.8422 -0.8422 -0.8422 -0.8422 -0.8422 -0.8422
-16.0000 -1.0680 -1.0680 -1.0680 -1.0680 -1.0680 -1.0680 -1.0680 -1.0680
-15.0000 -1.1900 -1.1900 -1.1900 -1.1900 -1.1900 -1.1900 -1.1900 -1.1900
-14.0000 -1.3330 -1.3330 -1.3330 -1.3330 -1.3330 -1.3330 -1.3330 -1.3330
-13.0000 -1.3340 -1.3340 -1.3340 -1.3340 -1.3340 -1.3340 -1.3340 -1.3340
-12.0000 -1.2550 -1.2550 -1.2550 -1.2550 -1.2550 -1.2550 -1.2550 -1.2550
-11.0000 -1.1610 -1.1610 -1.1610 -1.1610 -1.1610 -1.1610 -1.1610 -1.1610
-10.0000 -1.0550 -1.0550 -1.0550 -1.0550 -1.0550 -1.0550 -1.0550 -1.0550
 -9.0000 -0.9495 -0.9495 -0.9495 -0.9495 -0.9495 -0.9495 -0.9495 -0.9495
 -8.0000 -0.8440 -0.8440 -0.8440 -0.8440 -0.8440 -0.8440 -0.8440 -0.8440
 -7.0000 -0.7385 -0.7385 -0.7385 -0.7385 -0.7385 -0.7385 -0.7385 -0.7385
 -6.0000 -0.6330 -0.6330 -0.6330 -0.6330 -0.6330 -0.6330 -0.6330 -0.6330
 -5.0000 -0.2899 -0.2755 -0.2548 -0.2418 -0.2351 -0.2316 -0.2297 -0.2297
 -4.0000 -0.2052 -0.1869 -0.1601 -0.1436 -0.1343 -0.1287 -0.1253 -0.1253
 -3.0000 -0.1131 -0.1023 -0.0659 -0.0443 -0.0317 -0.0238 -0.0187 -0.0187
 -2.0000  0.0093 -0.0202  0.0261  0.0541  0.0707  0.0809  0.0877  0.0877
 -1.0000  0.2250  0.0611  0.1127  0.1492  0.1714  0.1846  0.1938  0.1938
  0.0000  0.4206  0.1804  0.1902  0.2336  0.2636  0.2818  0.2945  0.2945
  1.0000  0.4279  0.4553  0.3088  0.3122  0.3443  0.3695  0.3881  0.3881
  2.0000  0.4111  0.5048  0.5727  0.4809  0.4421  0.4466  0.4661  0.4661
  3.0000  0.4460  0.5080  0.5629  0.6110  0.6446  0.6212  0.5923  0.5923
  4.0000  0.5150  0.5760  0.6274  0.6616  0.6808  0.6928  0.7011  0.7011
  5.0000  0.5861  0.6507  0.7038  0.7424  0.7656  0.7799  0.7896  0.7896
  6.0000  0.6538  0.7226  0.7789  0.8207  0.8463  0.8625  0.8740  0.8740
  7.0000  0.7160  0.7894  0.8489  0.8949  0.9233  0.9417  0.9547  0.9547
  8.0000  0.7713  0.8497  0.9126  0.9628  0.9945  1.0151  1.0298  1.0298
  9.0000  0.8182  0.9023  0.9688  1.0234  1.0587  1.0818  1.0984  1.0984
 10.0000  0.8551  0.9461  1.0162  1.0755  1.1150  1.1411  1.1598  1.1598
 11.0000  0.8805  0.9798  1.0536  1.1173  1.1619  1.1915  1.2126  1.2126
 12.0000  0.8929  1.0028  1.0799  1.1472  1.1976  1.2314  1.2552  1.2552
 13.0000  0.8922  1.0152  1.0961  1.1649  1.2214  1.2598  1.2867  1.2867
 16.0000  1.0680  1.0680  1.0680  1.0680  1.0680  1.0680  1.0680  1.0680
 23.0000  0.8422  0.8422  0.8422  0.8422  0.8422  0.8422  0.8422  0.8422
 30.0000  0.9900  0.9900  0.9900  0.9900  0.9900  0.9900  0.9900  0.9900
 90.0000  0.0628  0.0628  0.0628  0.0628  0.0628  0.0628  0.0628  0.0628
135.0000 -1.0000 -1.0000 -1.0000 -1.0000 -1.0000 -1.0000 -1.0000 -1.0000
160.0000 -0.6471 -0.6471 -0.6471 -0.6471 -0.6471 -0.6471 -0.6471 -0.6471
165.0000 -0.6757 -0.6757 -0.6757 -0.6757 -0.6757 -0.6757 -0.6757 -0.6757
170.0000 -0.7452 -0.7452 -0.7452 -0.7452 -0.7452 -0.7452 -0.7452 -0.7452
180.0000  0.0000  0.0000  0.0000  0.0000  0.0000  0.0000  0.0000  0.0000
        0.0334  0.0501  0.0668  0.0835  0.1002  0.1168  0.1335  0.9000
-180.0000  0.0220  0.0220  0.0220  0.0220  0.0220  0.0220  0.0220  0.0220
-170.0000  0.1320  0.1320  0.1320  0.1320  0.1320  0.1320  0.1320  0.1320
-165.0000  0.2420  0.2420  0.2420  0.2420  0.2420  0.2420  0.2420  0.2420
-160.0000  0.3020  0.3020  0.3020  0.3020  0.3020  0.3020  0.3020  0.3020
-135.0000  1.1945  1.1945  1.1945  1.1945  1.1945  1.1945  1.1945  1.1945
-90.0000  2.0220  2.0220  2.0220  2.0220  2.0220  2.0220  2.0220  2.0220
-30.0000  0.5620  0.5620  0.5620  0.5620  0.5620  0.5620  0.5620  0.5620
-23.0000  0.3831  0.3831  0.3831  0.3831  0.3831  0.3831  0.3831  0.3831
-16.0000  0.1550  0.1550  0.1550  0.1550  0.1550  0.1550  0.1550  0.1550
-15.0000  0.1020  0.1020  0.1020  0.1020  0.1020  0.1020  0.1020  0.1020
-14.0000  0.0380  0.0380  0.0380  0.0380  0.0380  0.0380  0.0380  0.0380
-13.0000  0.0264  0.0264  0.0264  0.0264  0.0264  0.0264  0.0264  0.0264
-12.0000  0.0220  0.0220  0.0220  0.0220  0.0220  0.0220  0.0220  0.0220
-11.0000  0.0196  0.0196  0.0196  0.0196  0.0196  0.0196  0.0196  0.0196
-10.0000  0.0174  0.0174  0.0174  0.0174  0.0174  0.0174  0.0174  0.0174
 -9.0000  0.0154  0.0154  0.0154  0.0154  0.0154  0.0154  0.0154  0.0154
 -8.0000  0.0138  0.0138  0.0138  0.0138  0.0138  0.0138  0.0138  0.0138
 -7.0000  0.0122  0.0122  0.0122  0.0122  0.0122  0.0122  0.0122  0.0122
 -6.0000  0.0110  0.0110  0.0110  0.0110  0.0110  0.0110  0.0110  0.0110
 -5.0000  0.0411  0.0295  0.0250  0.0223  0.0206  0.0194  0.0185  0.0185
 -4.0000  0.0418  0.0297  0.0247  0.0219  0.0202  0.0189  0.0180  0.0180
 -3.0000  0.0412  0.0299  0.0249  0.0220  0.0201  0.0188  0.0178  0.0178
 -2.0000  0.0392  0.0297  0.0248  0.0219  0.0200  0.0187  0.0178  0.0178
 -1.0000  0.0367  0.0290  0.0246  0.0218  0.0200  0.0187  0.0177  0.0177
  0.0000  0.0336  0.0286  0.0244  0.0219  0.0201  0.0188  0.0179  0.0179
  1.0000  0.0326  0.0283  0.0244  0.0218  0.0202  0.0191  0.0181  0.0181
  2.0000  0.0320  0.0276  0.0249  0.0223  0.0204  0.0192  0.0184  0.0184
  3.0000  0.0329  0.0277  0.0245  0.0225  0.0213  0.0200  0.0189  0.0189
  4.0000  0.0350  0.0292  0.0255  0.0231  0.0215  0.0204  0.0195  0.0195
  5.0000  0.0378  0.0314  0.0272  0.0245  0.0227  0.0215  0.0206  0.0206
  6.0000  0.0414  0.0343  0.0295  0.0263  0.0244  0.0230  0.0220  0.0220
  7.0000  0.0459  0.0379  0.0324  0.0287  0.0265  0.0250  0.0239  0.0239
  8.0000  0.0512  0.0425  0.0362  0.0319  0.0292  0.0275  0.0263  0.0263
  9.0000  0.0578  0.0480  0.0410  0.0359  0.0327  0.0308  0.0295  0.0295
 10.0000  0.0659  0.0547  0.0469  0.0409  0.0372  0.0349  0.0334  0.0334
 11.0000  0.0758  0.0628  0.0541  0.0473  0.0428  0.0401  0.0384  0.0384
 12.0000  0.0883  0.0727  0.0630  0.0552  0.0499  0.0466  0.0445  0.0445
 13.0000  0.1037  0.0848  0.0739  0.0652  0.0587  0.0546  0.0522  0.0522
 16.0000  0.1550  0.1550  0.1550  0.1550  0.1550  0.1550  0.1550  0.1550
 23.0000  0.3831  0.3831  0.3831  0.3831  0.3831  0.3831  0.3831  0.3831
 30.0000  0.5620  0.5620  0.5620  0.5620  0.5620  0.5620  0.5620  0.5620
 90.0000  2.0220  2.0220  2.0220  2.0220  2.0220  2.0220  2.0220  2.0220
135.0000  1.1945  1.1945  1.1945  1.1945  1.1945  1.1945  1.1945  1.1945
160.0000  0.3020  0.3020  0.3020  0.3020  0.3020  0.3020  0.3020  0.3020
165.0000  0.2420  0.2420  0.2420  0.2420  0.2420  0.2420  0.2420  0.2420
170.0000  0.1320  0.1320  0.1320  0.1320  0.1320  0.1320  0.1320  0.1320
180.0000  0.0220  0.0220  0.0220  0.0220  0.0220  0.0220  0.0220  0.0220
        0.0334  0.0501  0.0668  0.0835  0.1002  0.1168  0.1335  0.9000
-180.0000  0.0000  0.0000  0.0000  0.0000  0.0000  0.0000  0.0000  0.0000
-170.0000  0.4000  0.4000  0.4000  0.4000  0.4000  0.4000  0.4000  0.4000
-165.0000  0.3000  0.3000  0.3000  0.3000  0.3000  0.3000  0.3000  0.3000
-160.0000  0.3000  0.3000  0.3000  0.3000  0.3000  0.3000  0.3000  0.3000
-135.0000  0.5000  0.5000  0.5000  0.5000  0.5000  0.5000  0.5000  0.5000
-90.0000  0.5000  0.5000  0.5000  0.5000  0.5000  0.5000  0.5000  0.5000
-30.0000  0.1740  0.1740  0.1740  0.1740  0.1740  0.1740  0.1740  0.1740
-23.0000  0.1120  0.1120  0.1120  0.1120  0.1120  0.1120  0.1120  0.1120
-16.0000  0.0730  0.0730  0.0730  0.0730  0.0730  0.0730  0.0730  0.0730
-15.0000  0.0540  0.0540  0.0540  0.0540  0.0540  0.0540  0.0540  0.0540
-14.0000  0.0000  0.0000  0.0000  0.0000  0.0000  0.0000  0.0000  0.0000
-13.0000  0.0000  0.0000  0.0000  0.0000  0.0000  0.0000  0.0000  0.0000
-12.0000  0.0000  0.0000  0.0000  0.0000  0.0000  0.0000  0.0000  0.0000
-11.0000  0.0000  0.0000  0.0000  0.0000  0.0000  0.0000  0.0000  0.0000
-10.0000  0.0000  0.0000  0.0000  0.0000  0.0000  0.0000  0.0000  0.0000
 -9.0000  0.0000  0.0000  0.0000  0.0000  0.0000  0.0000  0.0000  0.0000
 -8.0000  0.0000  0.0000  0.0000  0.0000  0.0000  0.0000  0.0000  0.0000
 -7.0000  0.0000  0.0000  0.0000  0.0000  0.0000  0.0000  0.0000  0.0000
 -6.0000  0.0000  0.0000  0.0000  0.0000  0.0000  0.0000  0.0000  0.0000
 -5.0000 -0.0475 -0.0597 -0.0648 -0.0676 -0.0691 -0.0700 -0.0706 -0.0706
 -4.0000 -0.0320 -0.0511 -0.0598 -0.0641 -0.0665 -0.0679 -0.0689 -0.0689
 -3.0000 -0.0204 -0.0414 -0.0536 -0.0599 -0.0634 -0.0656 -0.0670 -0.0670
 -2.0000 -0.0191 -0.0318 -0.0474 -0.0555 -0.0602 -0.0631 -0.0650 -0.0650
 -1.0000 -0.0402 -0.0235 -0.0405 -0.0507 -0.0569 -0.0605 -0.0630 -0.0630
  0.0000 -0.0648 -0.0231 -0.0314 -0.0433 -0.0514 -0.0561 -0.0595 -0.0595
  1.0000 -0.0554 -0.0567 -0.0312 -0.0348 -0.0433 -0.0498 -0.0546 -0.0546
  2.0000 -0.0402 -0.0533 -0.0630 -0.0456 -0.0390 -0.0410 -0.0460 -0.0460
  3.0000 -0.0317 -0.0391 -0.0467 -0.0538 -0.0588 -0.0539 -0.0483 -0.0483
  4.0000 -0.0287 -0.0349 -0.0412 -0.0457 -0.0482 -0.0497 -0.0507 -0.0507
  5.0000 -0.0266 -0.0321 -0.0376 -0.0423 -0.0452 -0.0470 -0.0482 -0.0482
  6.0000 -0.0250 -0.0298 -0.0345 -0.0388 -0.0417 -0.0436 -0.0448 -0.0448
  7.0000 -0.0237 -0.0279 -0.0318 -0.0356 -0.0384 -0.0402 -0.0415 -0.0415
  8.0000 -0.0228 -0.0263 -0.0295 -0.0327 -0.0352 -0.0370 -0.0383 -0.0383
  9.0000 -0.0223 -0.0250 -0.0276 -0.0302 -0.0323 -0.0340 -0.0352 -0.0352
 10.0000 -0.0225 -0.0243 -0.0261 -0.0281 -0.0299 -0.0314 -0.0326 -0.0326
 11.0000 -0.0236 -0.0241 -0.0252 -0.0265 -0.0278 -0.0291 -0.0302 -0.0302
 12.0000 -0.0263 -0.0250 -0.0252 -0.0256 -0.0264 -0.0273 -0.0283 -0.0283
 13.0000 -0.0308 -0.0272 -0.0263 -0.0258 -0.0258 -0.0263 -0.0270 -0.0270
 16.0000 -0.0730 -0.0730 -0.0730 -0.0730 -0.0730 -0.0730 -0.0730 -0.0730
 23.0000 -0.1120 -0.1120 -0.1120 -0.1120 -0.1120 -0.1120 -0.1120 -0.1120
 30.0000 -0.1740 -0.1740 -0.1740 -0.1740 -0.1740 -0.1740 -0.1740 -0.1740
 90.0000 -0.5000 -0.5000 -0.5000 -0.5000 -0.5000 -0.5000 -0.5000 -0.5000
135.0000 -0.5000 -0.5000 -0.5000 -0.5000 -0.5000 -0.5000 -0.5000 -0.5000
160.0000 -0.3000 -0.3000 -0.3000 -0.3000 -0.3000 -0.3000 -0.3000 -0.3000
165.0000 -0.3000 -0.3000 -0.3000 -0.3000 -0.3000 -0.3000 -0.3000 -0.3000
170.0000 -0.4000 -0.4000 -0.4000 -0.4000 -0.4000 -0.4000 -0.4000 -0.4000
180.0000  0.0000  0.0000  0.0000  0.0000  0.0000  0.0000  0.0000  0.0000
COMMENT #1 
COMMENT #2 
                     AF NAME   847 847 847
        0.0369  0.0554  0.0739  0.0924  0.1108  0.1293  0.1478  0.9000
-180.0000  0.0000  0.0000  0.0000  0.0000  0.0000  0.0000  0.0000  0.0000
-170.0000  0.7452  0.7452  0.7452  0.7452  0.7452  0.7452  0.7452  0.7452
-165.0000  0.6757  0.6757  0.6757  0.6757  0.6757  0.6757  0.6757  0.6757
-160.0000  0.6471  0.6471  0.6471  0.6471  0.6471  0.6471  0.6471  0.6471
-135.0000  1.0000  1.0000  1.0000  1.0000  1.0000  1.0000  1.0000  1.0000
-90.0000 -0.0627 -0.0627 -0.0627 -0.0627 -0.0627 -0.0627 -0.0627 -0.0627
-30.0000 -0.9900 -0.9900 -0.9900 -0.9900 -0.9900 -0.9900 -0.9900 -0.9900
-23.0000 -0.8422 -0.8422 -0.8422 -0.8422 -0.8422 -0.8422 -0.8422 -0.8422
-16.0000 -1.0680 -1.0680 -1.0680 -1.0680 -1.0680 -1.0680 -1.0680 -1.0680
-15.0000 -1.1900 -1.1900 -1.1900 -1.1900 -1.1900 -1.1900 -1.1900 -1.1900
-14.0000 -1.3330 -1.3330 -1.3330 -1.3330 -1.3330 -1.3330 -1.3330 -1.3330
-13.0000 -1.3340 -1.3340 -1.3340 -1.3340 -1.3340 -1.3340 -1.3340 -1.3340
-12.0000 -1.2550 -1.2550 -1.2550 -1.2550 -1.2550 -1.2550 -1.2550 -1.2550
-11.0000 -1.1610 -1.1610 -1.1610 -1.1610 -1.1610 -1.1610 -1.1610 -1.1610
-10.0000 -1.0550 -1.0550 -1.0550 -1.0550 -1.0550 -1.0550 -1.0550 -1.0550
 -9.0000 -0.9495 -0.9495 -0.9495 -0.9495 -0.9495 -0.9495 -0.9495 -0.9495
 -8.0000 -0.8440 -0.8440 -0.8440 -0.8440 -0.8440 -0.8440 -0.8440 -0.8440
 -7.0000 -0.7385 -0.7385 -0.7385 -0.7385 -0.7385 -0.7385 -0.7385 -0.7385
 -6.0000 -0.6330 -0.6330 -0.6330 -0.6330 -0.6330 -0.6330 -0.6330 -0.6330
 -5.0000 -0.3026 -0.2786 -0.2604 -0.2509 -0.2469 -0.2448 -0.2436 -0.2436
 -4.0000 -0.2222 -0.1880 -0.1638 -0.1511 -0.1445 -0.1408 -0.1385 -0.1385
 -3.0000 -0.1415 -0.0999 -0.0662 -0.0488 -0.0390 -0.0331 -0.0293 -0.0293
 -2.0000 -0.0357 -0.0152  0.0288  0.0522  0.0656  0.0736  0.0792  0.0792
 -1.0000  0.1989  0.0685  0.1169  0.1487  0.1676  0.1793  0.1871  0.1871
  0.0000  0.3801  0.2134  0.1982  0.2335  0.2597  0.2767  0.2887  0.2887
  1.0000  0.4001  0.4698  0.3633  0.3245  0.3408  0.3634  0.3813  0.3813
  2.0000  0.4193  0.4885  0.5391  0.5390  0.4851  0.4619  0.4637  0.4637
  3.0000  0.4883  0.5408  0.5770  0.5997  0.6166  0.6308  0.6363  0.6363
  4.0000  0.5681  0.6261  0.6645  0.6855  0.6979  0.7063  0.7130  0.7130
  5.0000  0.6433  0.7097  0.7550  0.7796  0.7943  0.8045  0.8127  0.8127
  6.0000  0.7159  0.7858  0.8393  0.8692  0.8865  0.8986  0.9082  0.9082
  7.0000  0.7829  0.8577  0.9150  0.9488  0.9691  0.9829  0.9937  0.9937
  8.0000  0.8430  0.9229  0.9853  1.0229  1.0455  1.0611  1.0734  1.0734
  9.0000  0.8944  0.9800  1.0477  1.0896  1.1152  1.1329  1.1467  1.1467
 10.0000  0.9354  1.0276  1.1008  1.1478  1.1767  1.1967  1.2120  1.2120
 11.0000  0.9640  1.0638  1.1427  1.1958  1.2287  1.2513  1.2683  1.2683
 12.0000  0.9784  1.0870  1.1708  1.2314  1.2690  1.2944  1.3133  1.3133
 13.0000  0.9795  1.0973  1.1839  1.2521  1.2950  1.3233  1.3436  1.3436
 16.0000  1.0680  1.0680  1.0680  1.0680  1.0680  1.0680  1.0680  1.0680
 23.0000  0.8422  0.8422  0.8422  0.8422  0.8422  0.8422  0.8422  0.8422
 30.0000  0.9900  0.9900  0.9900  0.9900  0.9900  0.9900  0.9900  0.9900
 90.0000  0.0628  0.0628  0.0628  0.0628  0.0628  0.0628  0.0628  0.0628
135.0000 -1.0000 -1.0000 -1.0000 -1.0000 -1.0000 -1.0000 -1.0000 -1.0000
160.0000 -0.6471 -0.6471 -0.6471 -0.6471 -0.6471 -0.6471 -0.6471 -0.6471
165.0000 -0.6757 -0.6757 -0.6757 -0.6757 -0.6757 -0.6757 -0.6757 -0.6757
170.0000 -0.7452 -0.7452 -0.7452 -0.7452 -0.7452 -0.7452 -0.7452 -0.7452
180.0000  0.0000  0.0000  0.0000  0.0000  0.0000  0.0000  0.0000  0.0000
        0.0369  0.0554  0.0739  0.0924  0.1108  0.1293  0.1478  0.9000
-180.0000  0.0220  0.0220  0.0220  0.0220  0.0220  0.0220  0.0220  0.0220
-170.0000  0.1320  0.1320  0.1320  0.1320  0.1320  0.1320  0.1320  0.1320
-165.0000  0.2420  0.2420  0.2420  0.2420  0.2420  0.2420  0.2420  0.2420
-160.0000  0.3020  0.3020  0.3020  0.3020  0.3020  0.3020  0.3020  0.3020
-135.0000  1.1945  1.1945  1.1945  1.1945  1.1945  1.1945  1.1945  1.1945
-90.0000  2.0220  2.0220  2.0220  2.0220  2.0220  2.0220  2.0220  2.0220
-30.0000  0.5620  0.5620  0.5620  0.5620  0.5620  0.5620  0.5620  0.5620
-23.0000  0.3831  0.3831  0.3831  0.3831  0.3831  0.3831  0.3831  0.3831
-16.0000  0.1550  0.1550  0.1550  0.1550  0.1550  0.1550  0.1550  0.1550
-15.0000  0.1020  0.1020  0.1020  0.1020  0.1020  0.1020  0.1020  0.1020
-14.0000  0.0380  0.0380  0.0380  0.0380  0.0380  0.0380  0.0380  0.0380
-13.0000  0.0264  0.0264  0.0264  0.0264  0.0264  0.0264  0.0264  0.0264
-12.0000  0.0220  0.0220  0.0220  0.0220  0.0220  0.0220  0.0220  0.0220
-11.0000  0.0196  0.0196  0.0196  0.0196  0.0196  0.0196  0.0196  0.0196
-10.0000  0.0174  0.0174  0.0174  0.0174  0.0174  0.0174  0.0174  0.0174
 -9.0000  0.0154  0.0154  0.0154  0.0154  0.0154  0.0154  0.0154  0.0154
 -8.0000  0.0138  0.0138  0.0138  0.0138  0.0138  0.0138  0.0138  0.0138
 -7.0000  0.0122  0.0122  0.0122  0.0122  0.0122  0.0122  0.0122  0.0122
 -6.0000  0.0110  0.0110  0.0110  0.0110  0.0110  0.0110  0.0110  0.0110
 -5.0000  0.0344  0.0264  0.0228  0.0207  0.0193  0.0184  0.0177  0.0177
 -4.0000  0.0345  0.0259  0.0221  0.0199  0.0184  0.0174  0.0166  0.0166
 -3.0000  0.0349  0.0261  0.0221  0.0197  0.0182  0.0171  0.0164  0.0164
 -2.0000  0.0338  0.0260  0.0220  0.0197  0.0181  0.0170  0.0162  0.0162
 -1.0000  0.0321  0.0256  0.0219  0.0196  0.0181  0.0170  0.0162  0.0162
  0.0000  0.0295  0.0253  0.0218  0.0197  0.0182  0.0172  0.0163  0.0163
  1.0000  0.0285  0.0247  0.0219  0.0196  0.0183  0.0174  0.0166  0.0166
  2.0000  0.0284  0.0242  0.0218  0.0202  0.0186  0.0175  0.0168  0.0168
  3.0000  0.0294  0.0247  0.0219  0.0202  0.0190  0.0181  0.0174  0.0174
  4.0000  0.0311  0.0260  0.0229  0.0210  0.0196  0.0186  0.0179  0.0179
  5.0000  0.0332  0.0276  0.0243  0.0221  0.0207  0.0197  0.0189  0.0189
  6.0000  0.0361  0.0297  0.0259  0.0236  0.0221  0.0210  0.0201  0.0201
  7.0000  0.0397  0.0324  0.0279  0.0254  0.0237  0.0225  0.0216  0.0216
  8.0000  0.0442  0.0360  0.0306  0.0276  0.0257  0.0244  0.0235  0.0235
  9.0000  0.0500  0.0405  0.0342  0.0306  0.0284  0.0270  0.0259  0.0259
 10.0000  0.0571  0.0463  0.0389  0.0345  0.0320  0.0303  0.0292  0.0292
 11.0000  0.0662  0.0537  0.0450  0.0397  0.0366  0.0347  0.0335  0.0335
 12.0000  0.0777  0.0630  0.0530  0.0464  0.0428  0.0406  0.0391  0.0391
 13.0000  0.0920  0.0746  0.0633  0.0553  0.0507  0.0481  0.0466  0.0466
 16.0000  0.1550  0.1550  0.1550  0.1550  0.1550  0.1550  0.1550  0.1550
 23.0000  0.3831  0.3831  0.3831  0.3831  0.3831  0.3831  0.3831  0.3831
 30.0000  0.5620  0.5620  0.5620  0.5620  0.5620  0.5620  0.5620  0.5620
 90.0000  2.0220  2.0220  2.0220  2.0220  2.0220  2.0220  2.0220  2.0220
135.0000  1.1945  1.1945  1.1945  1.1945  1.1945  1.1945  1.1945  1.1945
160.0000  0.3020  0.3020  0.3020  0.3020  0.3020  0.3020  0.3020  0.3020
165.0000  0.2420  0.2420  0.2420  0.2420  0.2420  0.2420  0.2420  0.2420
170.0000  0.1320  0.1320  0.1320  0.1320  0.1320  0.1320  0.1320  0.1320
180.0000  0.0220  0.0220  0.0220  0.0220  0.0220  0.0220  0.0220  0.0220
        0.0369  0.0554  0.0739  0.0924  0.1108  0.1293  0.1478  0.9000
-180.0000  0.0000  0.0000  0.0000  0.0000  0.0000  0.0000  0.0000  0.0000
-170.0000  0.4000  0.4000  0.4000  0.4000  0.4000  0.4000  0.4000  0.4000
-165.0000  0.3000  0.3000  0.3000  0.3000  0.3000  0.3000  0.3000  0.3000
-160.0000  0.3000  0.3000  0.3000  0.3000  0.3000  0.3000  0.3000  0.3000
-135.0000  0.5000  0.5000  0.5000  0.5000  0.5000  0.5000  0.5000  0.5000
-90.0000  0.5000  0.5000  0.5000  0.5000  0.5000  0.5000  0.5000  0.5000
-30.0000  0.1740  0.1740  0.1740  0.1740  0.1740  0.1740  0.1740  0.1740
-23.0000  0.1120  0.1120  0.1120  0.1120  0.1120  0.1120  0.1120  0.1120
-16.0000  0.0730  0.0730  0.0730  0.0730  0.0730  0.0730  0.0730  0.0730
-15.0000  0.0540  0.0540  0.0540  0.0540  0.0540  0.0540  0.0540  0.0540
-14.0000  0.0000  0.0000  0.0000  0.0000  0.0000  0.0000  0.0000  0.0000
-13.0000  0.0000  0.0000  0.0000  0.0000  0.0000  0.0000  0.0000  0.0000
-12.0000  0.0000  0.0000  0.0000  0.0000  0.0000  0.0000  0.0000  0.0000
-11.0000  0.0000  0.0000  0.0000  0.0000  0.0000  0.0000  0.0000  0.0000
-10.0000  0.0000  0.0000  0.0000  0.0000  0.0000  0.0000  0.0000  0.0000
 -9.0000  0.0000  0.0000  0.0000  0.0000  0.0000  0.0000  0.0000  0.0000
 -8.0000  0.0000  0.0000  0.0000  0.0000  0.0000  0.0000  0.0000  0.0000
 -7.0000  0.0000  0.0000  0.0000  0.0000  0.0000  0.0000  0.0000  0.0000
 -6.0000  0.0000  0.0000  0.0000  0.0000  0.0000  0.0000  0.0000  0.0000
 -5.0000 -0.0532 -0.0610 -0.0647 -0.0666 -0.0675 -0.0681 -0.0686 -0.0686
 -4.0000 -0.0387 -0.0540 -0.0607 -0.0638 -0.0655 -0.0666 -0.0673 -0.0673
 -3.0000 -0.0234 -0.0449 -0.0554 -0.0604 -0.0632 -0.0649 -0.0660 -0.0660
 -2.0000 -0.0170 -0.0357 -0.0495 -0.0564 -0.0603 -0.0626 -0.0642 -0.0642
 -1.0000 -0.0395 -0.0266 -0.0421 -0.0514 -0.0568 -0.0601 -0.0623 -0.0623
  0.0000 -0.0612 -0.0308 -0.0331 -0.0434 -0.0507 -0.0554 -0.0586 -0.0586
  1.0000 -0.0525 -0.0625 -0.0424 -0.0369 -0.0422 -0.0483 -0.0529 -0.0529
  2.0000 -0.0410 -0.0514 -0.0590 -0.0579 -0.0478 -0.0438 -0.0449 -0.0449
  3.0000 -0.0366 -0.0436 -0.0488 -0.0521 -0.0547 -0.0568 -0.0573 -0.0573
  4.0000 -0.0337 -0.0409 -0.0462 -0.0491 -0.0507 -0.0518 -0.0526 -0.0526
  5.0000 -0.0305 -0.0381 -0.0439 -0.0471 -0.0491 -0.0504 -0.0513 -0.0513
  6.0000 -0.0278 -0.0344 -0.0407 -0.0445 -0.0467 -0.0481 -0.0492 -0.0492
  7.0000 -0.0256 -0.0311 -0.0367 -0.0405 -0.0429 -0.0444 -0.0454 -0.0454
  8.0000 -0.0238 -0.0282 -0.0329 -0.0364 -0.0387 -0.0403 -0.0413 -0.0413
  9.0000 -0.0225 -0.0258 -0.0295 -0.0325 -0.0347 -0.0362 -0.0372 -0.0372
 10.0000 -0.0219 -0.0240 -0.0266 -0.0291 -0.0310 -0.0324 -0.0334 -0.0334
 11.0000 -0.0222 -0.0231 -0.0245 -0.0262 -0.0278 -0.0291 -0.0300 -0.0300
 12.0000 -0.0240 -0.0231 -0.0233 -0.0242 -0.0253 -0.0264 -0.0272 -0.0272
 13.0000 -0.0275 -0.0246 -0.0234 -0.0231 -0.0237 -0.0244 -0.0250 -0.0250
 16.0000 -0.0730 -0.0730 -0.0730 -0.0730 -0.0730 -0.0730 -0.0730 -0.0730
 23.0000 -0.1120 -0.1120 -0.1120 -0.1120 -0.1120 -0.1120 -0.1120 -0.1120
 30.0000 -0.1740 -0.1740 -0.1740 -0.1740 -0.1740 -0.1740 -0.1740 -0.1740
 90.0000 -0.5000 -0.5000 -0.5000 -0.5000 -0.5000 -0.5000 -0.5000 -0.5000
135.0000 -0.5000 -0.5000 -0.5000 -0.5000 -0.5000 -0.5000 -0.5000 -0.5000
160.0000 -0.3000 -0.3000 -0.3000 -0.3000 -0.3000 -0.3000 -0.3000 -0.3000
165.0000 -0.3000 -0.3000 -0.3000 -0.3000 -0.3000 -0.3000 -0.3000 -0.3000
170.0000 -0.4000 -0.4000 -0.4000 -0.4000 -0.4000 -0.4000 -0.4000 -0.4000
180.0000  0.0000  0.0000  0.0000  0.0000  0.0000  0.0000  0.0000  0.0000
COMMENT #1 
COMMENT #2 
                     AF NAME   847 847 847
        0.0405  0.0607  0.0810  0.1012  0.1215  0.1417  0.1620  0.9000
-180.0000  0.0000  0.0000  0.0000  0.0000  0.0000  0.0000  0.0000  0.0000
-170.0000  0.7452  0.7452  0.7452  0.7452  0.7452  0.7452  0.7452  0.7452
-165.0000  0.6757  0.6757  0.6757  0.6757  0.6757  0.6757  0.6757  0.6757
-160.0000  0.6471  0.6471  0.6471  0.6471  0.6471  0.6471  0.6471  0.6471
-135.0000  1.0000  1.0000  1.0000  1.0000  1.0000  1.0000  1.0000  1.0000
-90.0000 -0.0627 -0.0627 -0.0627 -0.0627 -0.0627 -0.0627 -0.0627 -0.0627
-30.0000 -0.9900 -0.9900 -0.9900 -0.9900 -0.9900 -0.9900 -0.9900 -0.9900
-23.0000 -0.8422 -0.8422 -0.8422 -0.8422 -0.8422 -0.8422 -0.8422 -0.8422
-16.0000 -1.0680 -1.0680 -1.0680 -1.0680 -1.0680 -1.0680 -1.0680 -1.0680
-15.0000 -1.1900 -1.1900 -1.1900 -1.1900 -1.1900 -1.1900 -1.1900 -1.1900
-14.0000 -1.3330 -1.3330 -1.3330 -1.3330 -1.3330 -1.3330 -1.3330 -1.3330
-13.0000 -1.3340 -1.3340 -1.3340 -1.3340 -1.3340 -1.3340 -1.3340 -1.3340
-12.0000 -1.2550 -1.2550 -1.2550 -1.2550 -1.2550 -1.2550 -1.2550 -1.2550
-11.0000 -1.1610 -1.1610 -1.1610 -1.1610 -1.1610 -1.1610 -1.1610 -1.1610
-10.0000 -1.0550 -1.0550 -1.0550 -1.0550 -1.0550 -1.0550 -1.0550 -1.0550
 -9.0000 -0.9495 -0.9495 -0.9495 -0.9495 -0.9495 -0.9495 -0.9495 -0.9495
 -8.0000 -0.8440 -0.8440 -0.8440 -0.8440 -0.8440 -0.8440 -0.8440 -0.8440
 -7.0000 -0.7385 -0.7385 -0.7385 -0.7385 -0.7385 -0.7385 -0.7385 -0.7385
 -6.0000 -0.6330 -0.6330 -0.6330 -0.6330 -0.6330 -0.6330 -0.6330 -0.6330
 -5.0000 -0.3074 -0.2847 -0.2693 -0.2622 -0.2596 -0.2587 -0.2585 -0.2585
 -4.0000 -0.2265 -0.1925 -0.1716 -0.1617 -0.1570 -0.1544 -0.1528 -0.1528
 -3.0000 -0.1531 -0.1022 -0.0717 -0.0574 -0.0495 -0.0451 -0.0420 -0.0420
 -2.0000 -0.0582 -0.0177  0.0241  0.0445  0.0560  0.0632  0.0683  0.0683
 -1.0000  0.2126  0.0678  0.1104  0.1402  0.1580  0.1687  0.1765  0.1765
  0.0000  0.3302  0.2712  0.1996  0.2214  0.2466  0.2651  0.2777  0.2777
  1.0000  0.3650  0.4233  0.4234  0.3526  0.3349  0.3477  0.3660  0.3660
  2.0000  0.4232  0.4692  0.5010  0.5213  0.5312  0.4949  0.4755  0.4755
  3.0000  0.5111  0.5549  0.5787  0.5915  0.5996  0.6061  0.6122  0.6122
  4.0000  0.6018  0.6511  0.6779  0.6923  0.7017  0.7089  0.7154  0.7154
  5.0000  0.6893  0.7456  0.7766  0.7935  0.8047  0.8136  0.8215  0.8215
  6.0000  0.7700  0.8355  0.8714  0.8912  0.9043  0.9147  0.9239  0.9239
  7.0000  0.8418  0.9180  0.9604  0.9833  0.9985  1.0104  1.0209  1.0209
  8.0000  0.9068  0.9885  1.0391  1.0671  1.0846  1.0981  1.1096  1.1096
  9.0000  0.9626  1.0511  1.1070  1.1378  1.1576  1.1727  1.1854  1.1854
 10.0000  1.0068  1.1022  1.1647  1.1995  1.2217  1.2382  1.2519  1.2519
 11.0000  1.0378  1.1396  1.2093  1.2481  1.2723  1.2895  1.3030  1.3030
 12.0000  1.0544  1.1626  1.2391  1.2816  1.3069  1.3242  1.3371  1.3371
 13.0000  1.0586  1.1733  1.2577  1.3057  1.3352  1.3565  1.3740  1.3740
 16.0000  1.0680  1.0680  1.0680  1.0680  1.0680  1.0680  1.0680  1.0680
 23.0000  0.8422  0.8422  0.8422  0.8422  0.8422  0.8422  0.8422  0.8422
 30.0000  0.9900  0.9900  0.9900  0.9900  0.9900  0.9900  0.9900  0.9900
 90.0000  0.0628  0.0628  0.0628  0.0628  0.0628  0.0628  0.0628  0.0628
135.0000 -1.0000 -1.0000 -1.0000 -1.0000 -1.0000 -1.0000 -1.0000 -1.0000
160.0000 -0.6471 -0.6471 -0.6471 -0.6471 -0.6471 -0.6471 -0.6471 -0.6471
165.0000 -0.6757 -0.6757 -0.6757 -0.6757 -0.6757 -0.6757 -0.6757 -0.6757
170.0000 -0.7452 -0.7452 -0.7452 -0.7452 -0.7452 -0.7452 -0.7452 -0.7452
180.0000  0.0000  0.0000  0.0000  0.0000  0.0000  0.0000  0.0000  0.0000
        0.0405  0.0607  0.0810  0.1012  0.1215  0.1417  0.1620  0.9000
-180.0000  0.0220  0.0220  0.0220  0.0220  0.0220  0.0220  0.0220  0.0220
-170.0000  0.1320  0.1320  0.1320  0.1320  0.1320  0.1320  0.1320  0.1320
-165.0000  0.2420  0.2420  0.2420  0.2420  0.2420  0.2420  0.2420  0.2420
-160.0000  0.3020  0.3020  0.3020  0.3020  0.3020  0.3020  0.3020  0.3020
-135.0000  1.1945  1.1945  1.1945  1.1945  1.1945  1.1945  1.1945  1.1945
-90.0000  2.0220  2.0220  2.0220  2.0220  2.0220  2.0220  2.0220  2.0220
-30.0000  0.5620  0.5620  0.5620  0.5620  0.5620  0.5620  0.5620  0.5620
-23.0000  0.3831  0.3831  0.3831  0.3831  0.3831  0.3831  0.3831  0.3831
-16.0000  0.1550  0.1550  0.1550  0.1550  0.1550  0.1550  0.1550  0.1550
-15.0000  0.1020  0.1020  0.1020  0.1020  0.1020  0.1020  0.1020  0.1020
-14.0000  0.0380  0.0380  0.0380  0.0380  0.0380  0.0380  0.0380  0.0380
-13.0000  0.0264  0.0264  0.0264  0.0264  0.0264  0.0264  0.0264  0.0264
-12.0000  0.0220  0.0220  0.0220  0.0220  0.0220  0.0220  0.0220  0.0220
-11.0000  0.0196  0.0196  0.0196  0.0196  0.0196  0.0196  0.0196  0.0196
-10.0000  0.0174  0.0174  0.0174  0.0174  0.0174  0.0174  0.0174  0.0174
 -9.0000  0.0154  0.0154  0.0154  0.0154  0.0154  0.0154  0.0154  0.0154
 -8.0000  0.0138  0.0138  0.0138  0.0138  0.0138  0.0138  0.0138  0.0138
 -7.0000  0.0122  0.0122  0.0122  0.0122  0.0122  0.0122  0.0122  0.0122
 -6.0000  0.0110  0.0110  0.0110  0.0110  0.0110  0.0110  0.0110  0.0110
 -5.0000  0.0308  0.0247  0.0217  0.0201  0.0189  0.0181  0.0175  0.0175
 -4.0000  0.0296  0.0231  0.0201  0.0183  0.0171  0.0163  0.0156  0.0156
 -3.0000  0.0301  0.0232  0.0199  0.0180  0.0167  0.0158  0.0152  0.0152
 -2.0000  0.0295  0.0232  0.0198  0.0179  0.0166  0.0156  0.0149  0.0149
 -1.0000  0.0280  0.0228  0.0198  0.0179  0.0165  0.0156  0.0149  0.0149
  0.0000  0.0260  0.0226  0.0196  0.0179  0.0167  0.0158  0.0150  0.0150
  1.0000  0.0253  0.0218  0.0197  0.0179  0.0167  0.0159  0.0152  0.0152
  2.0000  0.0256  0.0217  0.0195  0.0181  0.0171  0.0161  0.0154  0.0154
  3.0000  0.0266  0.0224  0.0200  0.0184  0.0173  0.0165  0.0158  0.0158
  4.0000  0.0280  0.0236  0.0209  0.0193  0.0181  0.0172  0.0166  0.0166
  5.0000  0.0298  0.0250  0.0221  0.0204  0.0192  0.0182  0.0175  0.0175
  6.0000  0.0321  0.0267  0.0236  0.0217  0.0204  0.0194  0.0187  0.0187
  7.0000  0.0349  0.0287  0.0253  0.0232  0.0218  0.0208  0.0200  0.0200
  8.0000  0.0386  0.0313  0.0274  0.0251  0.0236  0.0225  0.0216  0.0216
  9.0000  0.0434  0.0347  0.0301  0.0274  0.0258  0.0246  0.0237  0.0237
 10.0000  0.0498  0.0394  0.0337  0.0306  0.0287  0.0274  0.0265  0.0265
 11.0000  0.0581  0.0459  0.0388  0.0351  0.0330  0.0316  0.0307  0.0307
 12.0000  0.0687  0.0546  0.0459  0.0415  0.0392  0.0378  0.0370  0.0370
 13.0000  0.0817  0.0653  0.0548  0.0494  0.0466  0.0449  0.0438  0.0438
 16.0000  0.1550  0.1550  0.1550  0.1550  0.1550  0.1550  0.1550  0.1550
 23.0000  0.3831  0.3831  0.3831  0.3831  0.3831  0.3831  0.3831  0.3831
 30.0000  0.5620  0.5620  0.5620  0.5620  0.5620  0.5620  0.5620  0.5620
 90.0000  2.0220  2.0220  2.0220  2.0220  2.0220  2.0220  2.0220  2.0220
135.0000  1.1945  1.1945  1.1945  1.1945  1.1945  1.1945  1.1945  1.1945
160.0000  0.3020  0.3020  0.3020  0.3020  0.3020  0.3020  0.3020  0.3020
165.0000  0.2420  0.2420  0.2420  0.2420  0.2420  0.2420  0.2420  0.2420
170.0000  0.1320  0.1320  0.1320  0.1320  0.1320  0.1320  0.1320  0.1320
180.0000  0.0220  0.0220  0.0220  0.0220  0.0220  0.0220  0.0220  0.0220
        0.0405  0.0607  0.0810  0.1012  0.1215  0.1417  0.1620  0.9000
-180.0000  0.0000  0.0000  0.0000  0.0000  0.0000  0.0000  0.0000  0.0000
-170.0000  0.4000  0.4000  0.4000  0.4000  0.4000  0.4000  0.4000  0.4000
-165.0000  0.3000  0.3000  0.3000  0.3000  0.3000  0.3000  0.3000  0.3000
-160.0000  0.3000  0.3000  0.3000  0.3000  0.3000  0.3000  0.3000  0.3000
-135.0000  0.5000  0.5000  0.5000  0.5000  0.5000  0.5000  0.5000  0.5000
-90.0000  0.5000  0.5000  0.5000  0.5000  0.5000  0.5000  0.5000  0.5000
-30.0000  0.1740  0.1740  0.1740  0.1740  0.1740  0.1740  0.1740  0.1740
-23.0000  0.1120  0.1120  0.1120  0.1120  0.1120  0.1120  0.1120  0.1120
-16.0000  0.0730  0.0730  0.0730  0.0730  0.0730  0.0730  0.0730  0.0730
-15.0000  0.0540  0.0540  0.0540  0.0540  0.0540  0.0540  0.0540  0.0540
-14.0000  0.0000  0.0000  0.0000  0.0000  0.0000  0.0000  0.0000  0.0000
-13.0000  0.0000  0.0000  0.0000  0.0000  0.0000  0.0000  0.0000  0.0000
-12.0000  0.0000  0.0000  0.0000  0.0000  0.0000  0.0000  0.0000  0.0000
-11.0000  0.0000  0.0000  0.0000  0.0000  0.0000  0.0000  0.0000  0.0000
-10.0000  0.0000  0.0000  0.0000  0.0000  0.0000  0.0000  0.0000  0.0000
 -9.0000  0.0000  0.0000  0.0000  0.0000  0.0000  0.0000  0.0000  0.0000
 -8.0000  0.0000  0.0000  0.0000  0.0000  0.0000  0.0000  0.0000  0.0000
 -7.0000  0.0000  0.0000  0.0000  0.0000  0.0000  0.0000  0.0000  0.0000
 -6.0000  0.0000  0.0000  0.0000  0.0000  0.0000  0.0000  0.0000  0.0000
 -5.0000 -0.0561 -0.0610 -0.0638 -0.0651 -0.0657 -0.0661 -0.0665 -0.0665
 -4.0000 -0.0440 -0.0554 -0.0607 -0.0631 -0.0644 -0.0652 -0.0659 -0.0659
 -3.0000 -0.0272 -0.0469 -0.0561 -0.0602 -0.0625 -0.0638 -0.0649 -0.0649
 -2.0000 -0.0172 -0.0371 -0.0501 -0.0562 -0.0596 -0.0618 -0.0633 -0.0633
 -1.0000 -0.0464 -0.0277 -0.0417 -0.0505 -0.0557 -0.0589 -0.0611 -0.0611
  0.0000 -0.0563 -0.0440 -0.0337 -0.0412 -0.0484 -0.0536 -0.0570 -0.0570
  1.0000 -0.0483 -0.0574 -0.0561 -0.0432 -0.0410 -0.0451 -0.0499 -0.0499
  2.0000 -0.0416 -0.0488 -0.0538 -0.0570 -0.0583 -0.0513 -0.0476 -0.0476
  3.0000 -0.0393 -0.0458 -0.0493 -0.0512 -0.0524 -0.0532 -0.0540 -0.0540
  4.0000 -0.0374 -0.0442 -0.0481 -0.0502 -0.0515 -0.0524 -0.0532 -0.0532
  5.0000 -0.0351 -0.0424 -0.0466 -0.0490 -0.0505 -0.0516 -0.0525 -0.0525
  6.0000 -0.0322 -0.0400 -0.0447 -0.0473 -0.0489 -0.0502 -0.0511 -0.0511
  7.0000 -0.0286 -0.0368 -0.0419 -0.0447 -0.0465 -0.0478 -0.0488 -0.0488
  8.0000 -0.0255 -0.0323 -0.0378 -0.0411 -0.0431 -0.0444 -0.0453 -0.0453
  9.0000 -0.0229 -0.0281 -0.0329 -0.0360 -0.0379 -0.0392 -0.0401 -0.0401
 10.0000 -0.0212 -0.0244 -0.0282 -0.0309 -0.0327 -0.0339 -0.0347 -0.0347
 11.0000 -0.0206 -0.0218 -0.0241 -0.0262 -0.0276 -0.0286 -0.0292 -0.0292
 12.0000 -0.0214 -0.0206 -0.0212 -0.0224 -0.0234 -0.0240 -0.0244 -0.0244
 13.0000 -0.0237 -0.0207 -0.0194 -0.0195 -0.0198 -0.0199 -0.0198 -0.0198
 16.0000 -0.0730 -0.0730 -0.0730 -0.0730 -0.0730 -0.0730 -0.0730 -0.0730
 23.0000 -0.1120 -0.1120 -0.1120 -0.1120 -0.1120 -0.1120 -0.1120 -0.1120
 30.0000 -0.1740 -0.1740 -0.1740 -0.1740 -0.1740 -0.1740 -0.1740 -0.1740
 90.0000 -0.5000 -0.5000 -0.5000 -0.5000 -0.5000 -0.5000 -0.5000 -0.5000
135.0000 -0.5000 -0.5000 -0.5000 -0.5000 -0.5000 -0.5000 -0.5000 -0.5000
160.0000 -0.3000 -0.3000 -0.3000 -0.3000 -0.3000 -0.3000 -0.3000 -0.3000
165.0000 -0.3000 -0.3000 -0.3000 -0.3000 -0.3000 -0.3000 -0.3000 -0.3000
170.0000 -0.4000 -0.4000 -0.4000 -0.4000 -0.4000 -0.4000 -0.4000 -0.4000
180.0000  0.0000  0.0000  0.0000  0.0000  0.0000  0.0000  0.0000  0.0000
COMMENT #1 
COMMENT #2 
                     AF NAME   847 847 847
        0.0441  0.0661  0.0881  0.1101  0.1322  0.1542  0.1762  0.9000
-180.0000  0.0000  0.0000  0.0000  0.0000  0.0000  0.0000  0.0000  0.0000
-170.0000  0.7452  0.7452  0.7452  0.7452  0.7452  0.7452  0.7452  0.7452
-165.0000  0.6757  0.6757  0.6757  0.6757  0.6757  0.6757  0.6757  0.6757
-160.0000  0.6471  0.6471  0.6471  0.6471  0.6471  0.6471  0.6471  0.6471
-135.0000  1.0000  1.0000  1.0000  1.0000  1.0000  1.0000  1.0000  1.0000
-90.0000 -0.0627 -0.0627 -0.0627 -0.0627 -0.0627 -0.0627 -0.0627 -0.0627
-30.0000 -0.9900 -0.9900 -0.9900 -0.9900 -0.9900 -0.9900 -0.9900 -0.9900
-23.0000 -0.8422 -0.8422 -0.8422 -0.8422 -0.8422 -0.8422 -0.8422 -0.8422
-16.0000 -1.0680 -1.0680 -1.0680 -1.0680 -1.0680 -1.0680 -1.0680 -1.0680
-15.0000 -1.1900 -1.1900 -1.1900 -1.1900 -1.1900 -1.1900 -1.1900 -1.1900
-14.0000 -1.3330 -1.3330 -1.3330 -1.3330 -1.3330 -1.3330 -1.3330 -1.3330
-13.0000 -1.3340 -1.3340 -1.3340 -1.3340 -1.3340 -1.3340 -1.3340 -1.3340
-12.0000 -1.2550 -1.2550 -1.2550 -1.2550 -1.2550 -1.2550 -1.2550 -1.2550
-11.0000 -1.1610 -1.1610 -1.1610 -1.1610 -1.1610 -1.1610 -1.1610 -1.1610
-10.0000 -1.0550 -1.0550 -1.0550 -1.0550 -1.0550 -1.0550 -1.0550 -1.0550
 -9.0000 -0.9495 -0.9495 -0.9495 -0.9495 -0.9495 -0.9495 -0.9495 -0.9495
 -8.0000 -0.8440 -0.8440 -0.8440 -0.8440 -0.8440 -0.8440 -0.8440 -0.8440
 -7.0000 -0.7385 -0.7385 -0.7385 -0.7385 -0.7385 -0.7385 -0.7385 -0.7385
 -6.0000 -0.6330 -0.6330 -0.6330 -0.6330 -0.6330 -0.6330 -0.6330 -0.6330
 -5.0000 -0.3155 -0.2965 -0.2839 -0.2794 -0.2785 -0.2787 -0.2793 -0.2793
 -4.0000 -0.2316 -0.2030 -0.1861 -0.1789 -0.1754 -0.1737 -0.1728 -0.1728
 -3.0000 -0.1618 -0.1113 -0.0852 -0.0734 -0.0673 -0.0634 -0.0610 -0.0610
 -2.0000 -0.0682 -0.0291  0.0088  0.0279  0.0388  0.0452  0.0501  0.0501
 -1.0000  0.2332  0.0658  0.0921  0.1203  0.1384  0.1494  0.1574  0.1574
  0.0000  0.2797  0.3235  0.2227  0.2037  0.2217  0.2407  0.2554  0.2554
  1.0000  0.3353  0.3784  0.4027  0.4003  0.3554  0.3372  0.3413  0.3413
  2.0000  0.4221  0.4555  0.4722  0.4821  0.4902  0.4982  0.5051  0.5051
  3.0000  0.5200  0.5557  0.5726  0.5818  0.5882  0.5936  0.5987  0.5987
  4.0000  0.6179  0.6579  0.6773  0.6883  0.6964  0.7033  0.7099  0.7099
  5.0000  0.7129  0.7582  0.7804  0.7934  0.8030  0.8114  0.8194  0.8194
  6.0000  0.8031  0.8549  0.8804  0.8954  0.9067  0.9164  0.9257  0.9257
  7.0000  0.8864  0.9463  0.9757  0.9930  1.0059  1.0171  1.0275  1.0275
  8.0000  0.9578  1.0298  1.0639  1.0838  1.0984  1.1109  1.1225  1.1225
  9.0000  1.0166  1.0991  1.1405  1.1630  1.1788  1.1916  1.2027  1.2027
 10.0000  1.0623  1.1512  1.1957  1.2193  1.2345  1.2461  1.2561  1.2561
 11.0000  1.0941  1.1905  1.2397  1.2676  1.2885  1.3070  1.3239  1.3239
 12.0000  1.1153  1.2308  1.2960  1.3389  1.3702  1.3921  1.3918  1.3918
 13.0000  1.1288  1.2785  1.3577  1.3992  1.4203  1.4366  1.4283  1.4283
 16.0000  1.0680  1.0680  1.0680  1.0680  1.0680  1.0680  1.0680  1.0680
 23.0000  0.8422  0.8422  0.8422  0.8422  0.8422  0.8422  0.8422  0.8422
 30.0000  0.9900  0.9900  0.9900  0.9900  0.9900  0.9900  0.9900  0.9900
 90.0000  0.0628  0.0628  0.0628  0.0628  0.0628  0.0628  0.0628  0.0628
135.0000 -1.0000 -1.0000 -1.0000 -1.0000 -1.0000 -1.0000 -1.0000 -1.0000
160.0000 -0.6471 -0.6471 -0.6471 -0.6471 -0.6471 -0.6471 -0.6471 -0.6471
165.0000 -0.6757 -0.6757 -0.6757 -0.6757 -0.6757 -0.6757 -0.6757 -0.6757
170.0000 -0.7452 -0.7452 -0.7452 -0.7452 -0.7452 -0.7452 -0.7452 -0.7452
180.0000  0.0000  0.0000  0.0000  0.0000  0.0000  0.0000  0.0000  0.0000
        0.0441  0.0661  0.0881  0.1101  0.1322  0.1542  0.1762  0.9000
-180.0000  0.0220  0.0220  0.0220  0.0220  0.0220  0.0220  0.0220  0.0220
-170.0000  0.1320  0.1320  0.1320  0.1320  0.1320  0.1320  0.1320  0.1320
-165.0000  0.2420  0.2420  0.2420  0.2420  0.2420  0.2420  0.2420  0.2420
-160.0000  0.3020  0.3020  0.3020  0.3020  0.3020  0.3020  0.3020  0.3020
-135.0000  1.1945  1.1945  1.1945  1.1945  1.1945  1.1945  1.1945  1.1945
-90.0000  2.0220  2.0220  2.0220  2.0220  2.0220  2.0220  2.0220  2.0220
-30.0000  0.5620  0.5620  0.5620  0.5620  0.5620  0.5620  0.5620  0.5620
-23.0000  0.3831  0.3831  0.3831  0.3831  0.3831  0.3831  0.3831  0.3831
-16.0000  0.1550  0.1550  0.1550  0.1550  0.1550  0.1550  0.1550  0.1550
-15.0000  0.1020  0.1020  0.1020  0.1020  0.1020  0.1020  0.1020  0.1020
-14.0000  0.0380  0.0380  0.0380  0.0380  0.0380  0.0380  0.0380  0.0380
-13.0000  0.0264  0.0264  0.0264  0.0264  0.0264  0.0264  0.0264  0.0264
-12.0000  0.0220  0.0220  0.0220  0.0220  0.0220  0.0220  0.0220  0.0220
-11.0000  0.0196  0.0196  0.0196  0.0196  0.0196  0.0196  0.0196  0.0196
-10.0000  0.0174  0.0174  0.0174  0.0174  0.0174  0.0174  0.0174  0.0174
 -9.0000  0.0154  0.0154  0.0154  0.0154  0.0154  0.0154  0.0154  0.0154
 -8.0000  0.0138  0.0138  0.0138  0.0138  0.0138  0.0138  0.0138  0.0138
 -7.0000  0.0122  0.0122  0.0122  0.0122  0.0122  0.0122  0.0122  0.0122
 -6.0000  0.0110  0.0110  0.0110  0.0110  0.0110  0.0110  0.0110  0.0110
 -5.0000  0.0291  0.0243  0.0217  0.0201  0.0189  0.0181  0.0175  0.0175
 -4.0000  0.0262  0.0211  0.0186  0.0171  0.0162  0.0155  0.0149  0.0149
 -3.0000  0.0266  0.0209  0.0181  0.0165  0.0155  0.0148  0.0142  0.0142
 -2.0000  0.0262  0.0209  0.0181  0.0164  0.0153  0.0145  0.0139  0.0139
 -1.0000  0.0245  0.0206  0.0180  0.0164  0.0153  0.0144  0.0138  0.0138
  0.0000  0.0231  0.0201  0.0179  0.0163  0.0153  0.0146  0.0140  0.0140
  1.0000  0.0229  0.0196  0.0177  0.0164  0.0153  0.0145  0.0140  0.0140
  2.0000  0.0235  0.0199  0.0178  0.0165  0.0155  0.0148  0.0143  0.0143
  3.0000  0.0245  0.0207  0.0185  0.0171  0.0161  0.0153  0.0147  0.0147
  4.0000  0.0258  0.0217  0.0194  0.0180  0.0169  0.0161  0.0155  0.0155
  5.0000  0.0274  0.0230  0.0206  0.0190  0.0179  0.0171  0.0164  0.0164
  6.0000  0.0294  0.0246  0.0220  0.0203  0.0191  0.0182  0.0175  0.0175
  7.0000  0.0318  0.0265  0.0236  0.0218  0.0205  0.0196  0.0189  0.0189
  8.0000  0.0349  0.0288  0.0256  0.0236  0.0223  0.0213  0.0205  0.0205
  9.0000  0.0389  0.0318  0.0282  0.0260  0.0246  0.0236  0.0229  0.0229
 10.0000  0.0446  0.0358  0.0317  0.0295  0.0281  0.0273  0.0268  0.0268
 11.0000  0.0522  0.0415  0.0368  0.0344  0.0331  0.0323  0.0320  0.0320
 12.0000  0.0618  0.0483  0.0428  0.0403  0.0393  0.0390  0.0376  0.0376
 13.0000  0.0735  0.0561  0.0507  0.0490  0.0486  0.0458  0.0454  0.0454
 16.0000  0.1550  0.1550  0.1550  0.1550  0.1550  0.1550  0.1550  0.1550
 23.0000  0.3831  0.3831  0.3831  0.3831  0.3831  0.3831  0.3831  0.3831
 30.0000  0.5620  0.5620  0.5620  0.5620  0.5620  0.5620  0.5620  0.5620
 90.0000  2.0220  2.0220  2.0220  2.0220  2.0220  2.0220  2.0220  2.0220
135.0000  1.1945  1.1945  1.1945  1.1945  1.1945  1.1945  1.1945  1.1945
160.0000  0.3020  0.3020  0.3020  0.3020  0.3020  0.3020  0.3020  0.3020
165.0000  0.2420  0.2420  0.2420  0.2420  0.2420  0.2420  0.2420  0.2420
170.0000  0.1320  0.1320  0.1320  0.1320  0.1320  0.1320  0.1320  0.1320
180.0000  0.0220  0.0220  0.0220  0.0220  0.0220  0.0220  0.0220  0.0220
        0.0441  0.0661  0.0881  0.1101  0.1322  0.1542  0.1762  0.9000
-180.0000  0.0000  0.0000  0.0000  0.0000  0.0000  0.0000  0.0000  0.0000
-170.0000  0.4000  0.4000  0.4000  0.4000  0.4000  0.4000  0.4000  0.4000
-165.0000  0.3000  0.3000  0.3000  0.3000  0.3000  0.3000  0.3000  0.3000
-160.0000  0.3000  0.3000  0.3000  0.3000  0.3000  0.3000  0.3000  0.3000
-135.0000  0.5000  0.5000  0.5000  0.5000  0.5000  0.5000  0.5000  0.5000
-90.0000  0.5000  0.5000  0.5000  0.5000  0.5000  0.5000  0.5000  0.5000
-30.0000  0.1740  0.1740  0.1740  0.1740  0.1740  0.1740  0.1740  0.1740
-23.0000  0.1120  0.1120  0.1120  0.1120  0.1120  0.1120  0.1120  0.1120
-16.0000  0.0730  0.0730  0.0730  0.0730  0.0730  0.0730  0.0730  0.0730
-15.0000  0.0540  0.0540  0.0540  0.0540  0.0540  0.0540  0.0540  0.0540
-14.0000  0.0000  0.0000  0.0000  0.0000  0.0000  0.0000  0.0000  0.0000
-13.0000  0.0000  0.0000  0.0000  0.0000  0.0000  0.0000  0.0000  0.0000
-12.0000  0.0000  0.0000  0.0000  0.0000  0.0000  0.0000  0.0000  0.0000
-11.0000  0.0000  0.0000  0.0000  0.0000  0.0000  0.0000  0.0000  0.0000
-10.0000  0.0000  0.0000  0.0000  0.0000  0.0000  0.0000  0.0000  0.0000
 -9.0000  0.0000  0.0000  0.0000  0.0000  0.0000  0.0000  0.0000  0.0000
 -8.0000  0.0000  0.0000  0.0000  0.0000  0.0000  0.0000  0.0000  0.0000
 -7.0000  0.0000  0.0000  0.0000  0.0000  0.0000  0.0000  0.0000  0.0000
 -6.0000  0.0000  0.0000  0.0000  0.0000  0.0000  0.0000  0.0000  0.0000
 -5.0000 -0.0559 -0.0588 -0.0608 -0.0616 -0.0619 -0.0622 -0.0626 -0.0626
 -4.0000 -0.0464 -0.0546 -0.0585 -0.0603 -0.0612 -0.0619 -0.0624 -0.0624
 -3.0000 -0.0287 -0.0466 -0.0542 -0.0577 -0.0595 -0.0608 -0.0617 -0.0617
 -2.0000 -0.0174 -0.0357 -0.0473 -0.0532 -0.0566 -0.0586 -0.0602 -0.0602
 -1.0000 -0.0549 -0.0275 -0.0378 -0.0463 -0.0518 -0.0550 -0.0574 -0.0574
  0.0000 -0.0503 -0.0569 -0.0385 -0.0370 -0.0427 -0.0481 -0.0521 -0.0521
  1.0000 -0.0438 -0.0510 -0.0548 -0.0538 -0.0454 -0.0424 -0.0441 -0.0441
  2.0000 -0.0411 -0.0465 -0.0491 -0.0507 -0.0520 -0.0532 -0.0542 -0.0542
  3.0000 -0.0398 -0.0454 -0.0480 -0.0494 -0.0503 -0.0511 -0.0517 -0.0517
  4.0000 -0.0385 -0.0444 -0.0473 -0.0489 -0.0501 -0.0510 -0.0518 -0.0518
  5.0000 -0.0369 -0.0431 -0.0463 -0.0481 -0.0494 -0.0504 -0.0513 -0.0513
  6.0000 -0.0347 -0.0414 -0.0448 -0.0468 -0.0482 -0.0493 -0.0502 -0.0502
  7.0000 -0.0319 -0.0390 -0.0427 -0.0448 -0.0463 -0.0474 -0.0483 -0.0483
  8.0000 -0.0279 -0.0356 -0.0396 -0.0419 -0.0435 -0.0446 -0.0454 -0.0454
  9.0000 -0.0235 -0.0308 -0.0352 -0.0375 -0.0390 -0.0399 -0.0403 -0.0403
 10.0000 -0.0199 -0.0248 -0.0284 -0.0304 -0.0313 -0.0318 -0.0318 -0.0318
 11.0000 -0.0176 -0.0196 -0.0220 -0.0236 -0.0247 -0.0255 -0.0261 -0.0261
 12.0000 -0.0166 -0.0154 -0.0173 -0.0196 -0.0215 -0.0227 -0.0215 -0.0215
 13.0000 -0.0166 -0.0119 -0.0138 -0.0158 -0.0168 -0.0170 -0.0157 -0.0157
 16.0000 -0.0730 -0.0730 -0.0730 -0.0730 -0.0730 -0.0730 -0.0730 -0.0730
 23.0000 -0.1120 -0.1120 -0.1120 -0.1120 -0.1120 -0.1120 -0.1120 -0.1120
 30.0000 -0.1740 -0.1740 -0.1740 -0.1740 -0.1740 -0.1740 -0.1740 -0.1740
 90.0000 -0.5000 -0.5000 -0.5000 -0.5000 -0.5000 -0.5000 -0.5000 -0.5000
135.0000 -0.5000 -0.5000 -0.5000 -0.5000 -0.5000 -0.5000 -0.5000 -0.5000
160.0000 -0.3000 -0.3000 -0.3000 -0.3000 -0.3000 -0.3000 -0.3000 -0.3000
165.0000 -0.3000 -0.3000 -0.3000 -0.3000 -0.3000 -0.3000 -0.3000 -0.3000
170.0000 -0.4000 -0.4000 -0.4000 -0.4000 -0.4000 -0.4000 -0.4000 -0.4000
180.0000  0.0000  0.0000  0.0000  0.0000  0.0000  0.0000  0.0000  0.0000
COMMENT #1 
COMMENT #2 
                     AF NAME   847 847 847
        0.0476  0.0714  0.0952  0.1190  0.1428  0.1667  0.1905  0.9000
-180.0000  0.0000  0.0000  0.0000  0.0000  0.0000  0.0000  0.0000  0.0000
-170.0000  0.7452  0.7452  0.7452  0.7452  0.7452  0.7452  0.7452  0.7452
-165.0000  0.6757  0.6757  0.6757  0.6757  0.6757  0.6757  0.6757  0.6757
-160.0000  0.6471  0.6471  0.6471  0.6471  0.6471  0.6471  0.6471  0.6471
-135.0000  1.0000  1.0000  1.0000  1.0000  1.0000  1.0000  1.0000  1.0000
-90.0000 -0.0627 -0.0627 -0.0627 -0.0627 -0.0627 -0.0627 -0.0627 -0.0627
-30.0000 -0.9900 -0.9900 -0.9900 -0.9900 -0.9900 -0.9900 -0.9900 -0.9900
-23.0000 -0.8422 -0.8422 -0.8422 -0.8422 -0.8422 -0.8422 -0.8422 -0.8422
-16.0000 -1.0680 -1.0680 -1.0680 -1.0680 -1.0680 -1.0680 -1.0680 -1.0680
-15.0000 -1.1900 -1.1900 -1.1900 -1.1900 -1.1900 -1.1900 -1.1900 -1.1900
-14.0000 -1.3330 -1.3330 -1.3330 -1.3330 -1.3330 -1.3330 -1.3330 -1.3330
-13.0000 -1.3340 -1.3340 -1.3340 -1.3340 -1.3340 -1.3340 -1.3340 -1.3340
-12.0000 -1.2550 -1.2550 -1.2550 -1.2550 -1.2550 -1.2550 -1.2550 -1.2550
-11.0000 -1.1610 -1.1610 -1.1610 -1.1610 -1.1610 -1.1610 -1.1610 -1.1610
-10.0000 -1.0550 -1.0550 -1.0550 -1.0550 -1.0550 -1.0550 -1.0550 -1.0550
 -9.0000 -0.9495 -0.9495 -0.9495 -0.9495 -0.9495 -0.9495 -0.9495 -0.9495
 -8.0000 -0.8440 -0.8440 -0.8440 -0.8440 -0.8440 -0.8440 -0.8440 -0.8440
 -7.0000 -0.7385 -0.7385 -0.7385 -0.7385 -0.7385 -0.7385 -0.7385 -0.7385
 -6.0000 -0.6330 -0.6330 -0.6330 -0.6330 -0.6330 -0.6330 -0.6330 -0.6330
 -5.0000 -0.3228 -0.3066 -0.2965 -0.2933 -0.2934 -0.2943 -0.2955 -0.2955
 -4.0000 -0.2345 -0.2119 -0.1980 -0.1925 -0.1900 -0.1885 -0.1877 -0.1877
 -3.0000 -0.1678 -0.1202 -0.0969 -0.0867 -0.0814 -0.0783 -0.0762 -0.0762
 -2.0000 -0.0689 -0.0415 -0.0049  0.0137  0.0239  0.0305  0.0353  0.0353
 -1.0000  0.1848  0.0842  0.0749  0.1013  0.1198  0.1327  0.1413  0.1413
  0.0000  0.2402  0.2776  0.2660  0.2098  0.2027  0.2184  0.2352  0.2352
  1.0000  0.3182  0.3475  0.3632  0.3737  0.3823  0.3551  0.3391  0.3391
  2.0000  0.4180  0.4454  0.4570  0.4633  0.4680  0.4723  0.4768  0.4768
  3.0000  0.5213  0.5511  0.5644  0.5722  0.5782  0.5838  0.5893  0.5893
  4.0000  0.6238  0.6567  0.6720  0.6815  0.6891  0.6961  0.7030  0.7030
  5.0000  0.7236  0.7603  0.7777  0.7888  0.7979  0.8063  0.8146  0.8146
  6.0000  0.8194  0.8605  0.8803  0.8932  0.9038  0.9135  0.9230  0.9230
  7.0000  0.9089  0.9556  0.9782  0.9929  1.0048  1.0157  1.0261  1.0261
  8.0000  0.9888  1.0423  1.0673  1.0829  1.0948  1.1049  1.1140  1.1140
  9.0000  1.0533  1.1148  1.1415  1.1580  1.1721  1.1857  1.1994  1.1994
 10.0000  1.1018  1.1812  1.2211  1.2498  1.2712  1.2805  1.2839  1.2839
 11.0000  1.1577  1.2699  1.3184  1.3423  1.3487  1.3534  1.3606  1.3606
 12.0000  1.2146  1.3328  1.3682  1.3805  1.3790  1.4057  1.3943  1.3943
 13.0000  1.1990  1.3029  1.3283  1.3251  1.3604  1.3725  1.3851  1.3851
 16.0000  1.0680  1.0680  1.0680  1.0680  1.0680  1.0680  1.0680  1.0680
 23.0000  0.8422  0.8422  0.8422  0.8422  0.8422  0.8422  0.8422  0.8422
 30.0000  0.9900  0.9900  0.9900  0.9900  0.9900  0.9900  0.9900  0.9900
 90.0000  0.0628  0.0628  0.0628  0.0628  0.0628  0.0628  0.0628  0.0628
135.0000 -1.0000 -1.0000 -1.0000 -1.0000 -1.0000 -1.0000 -1.0000 -1.0000
160.0000 -0.6471 -0.6471 -0.6471 -0.6471 -0.6471 -0.6471 -0.6471 -0.6471
165.0000 -0.6757 -0.6757 -0.6757 -0.6757 -0.6757 -0.6757 -0.6757 -0.6757
170.0000 -0.7452 -0.7452 -0.7452 -0.7452 -0.7452 -0.7452 -0.7452 -0.7452
180.0000  0.0000  0.0000  0.0000  0.0000  0.0000  0.0000  0.0000  0.0000
        0.0476  0.0714  0.0952  0.1190  0.1428  0.1667  0.1905  0.9000
-180.0000  0.0220  0.0220  0.0220  0.0220  0.0220  0.0220  0.0220  0.0220
-170.0000  0.1320  0.1320  0.1320  0.1320  0.1320  0.1320  0.1320  0.1320
-165.0000  0.2420  0.2420  0.2420  0.2420  0.2420  0.2420  0.2420  0.2420
-160.0000  0.3020  0.3020  0.3020  0.3020  0.3020  0.3020  0.3020  0.3020
-135.0000  1.1945  1.1945  1.1945  1.1945  1.1945  1.1945  1.1945  1.1945
-90.0000  2.0220  2.0220  2.0220  2.0220  2.0220  2.0220  2.0220  2.0220
-30.0000  0.5620  0.5620  0.5620  0.5620  0.5620  0.5620  0.5620  0.5620
-23.0000  0.3831  0.3831  0.3831  0.3831  0.3831  0.3831  0.3831  0.3831
-16.0000  0.1550  0.1550  0.1550  0.1550  0.1550  0.1550  0.1550  0.1550
-15.0000  0.1020  0.1020  0.1020  0.1020  0.1020  0.1020  0.1020  0.1020
-14.0000  0.0380  0.0380  0.0380  0.0380  0.0380  0.0380  0.0380  0.0380
-13.0000  0.0264  0.0264  0.0264  0.0264  0.0264  0.0264  0.0264  0.0264
-12.0000  0.0220  0.0220  0.0220  0.0220  0.0220  0.0220  0.0220  0.0220
-11.0000  0.0196  0.0196  0.0196  0.0196  0.0196  0.0196  0.0196  0.0196
-10.0000  0.0174  0.0174  0.0174  0.0174  0.0174  0.0174  0.0174  0.0174
 -9.0000  0.0154  0.0154  0.0154  0.0154  0.0154  0.0154  0.0154  0.0154
 -8.0000  0.0138  0.0138  0.0138  0.0138  0.0138  0.0138  0.0138  0.0138
 -7.0000  0.0122  0.0122  0.0122  0.0122  0.0122  0.0122  0.0122  0.0122
 -6.0000  0.0110  0.0110  0.0110  0.0110  0.0110  0.0110  0.0110  0.0110
 -5.0000  0.0294  0.0249  0.0222  0.0208  0.0197  0.0190  0.0184  0.0184
 -4.0000  0.0239  0.0198  0.0176  0.0164  0.0157  0.0152  0.0149  0.0149
 -3.0000  0.0240  0.0192  0.0169  0.0155  0.0146  0.0140  0.0135  0.0135
 -2.0000  0.0238  0.0193  0.0168  0.0153  0.0143  0.0135  0.0130  0.0130
 -1.0000  0.0221  0.0189  0.0167  0.0153  0.0143  0.0135  0.0129  0.0129
  0.0000  0.0211  0.0182  0.0165  0.0151  0.0142  0.0136  0.0131  0.0131
  1.0000  0.0213  0.0181  0.0163  0.0151  0.0143  0.0136  0.0130  0.0130
  2.0000  0.0219  0.0186  0.0167  0.0155  0.0146  0.0139  0.0133  0.0133
  3.0000  0.0229  0.0194  0.0174  0.0161  0.0152  0.0145  0.0139  0.0139
  4.0000  0.0241  0.0204  0.0183  0.0170  0.0160  0.0153  0.0147  0.0147
  5.0000  0.0257  0.0217  0.0195  0.0180  0.0170  0.0162  0.0156  0.0156
  6.0000  0.0276  0.0232  0.0208  0.0193  0.0182  0.0174  0.0168  0.0168
  7.0000  0.0299  0.0251  0.0226  0.0209  0.0198  0.0189  0.0183  0.0183
  8.0000  0.0330  0.0277  0.0249  0.0232  0.0221  0.0214  0.0210  0.0210
  9.0000  0.0370  0.0312  0.0284  0.0269  0.0261  0.0258  0.0258  0.0258
 10.0000  0.0423  0.0360  0.0335  0.0325  0.0322  0.0313  0.0298  0.0298
 11.0000  0.0488  0.0426  0.0411  0.0408  0.0395  0.0368  0.0365  0.0365
 12.0000  0.0574  0.0526  0.0519  0.0522  0.0481  0.0465  0.0435  0.0435
 13.0000  0.0726  0.0660  0.0654  0.0658  0.0581  0.0556  0.0525  0.0525
 16.0000  0.1550  0.1550  0.1550  0.1550  0.1550  0.1550  0.1550  0.1550
 23.0000  0.3831  0.3831  0.3831  0.3831  0.3831  0.3831  0.3831  0.3831
 30.0000  0.5620  0.5620  0.5620  0.5620  0.5620  0.5620  0.5620  0.5620
 90.0000  2.0220  2.0220  2.0220  2.0220  2.0220  2.0220  2.0220  2.0220
135.0000  1.1945  1.1945  1.1945  1.1945  1.1945  1.1945  1.1945  1.1945
160.0000  0.3020  0.3020  0.3020  0.3020  0.3020  0.3020  0.3020  0.3020
165.0000  0.2420  0.2420  0.2420  0.2420  0.2420  0.2420  0.2420  0.2420
170.0000  0.1320  0.1320  0.1320  0.1320  0.1320  0.1320  0.1320  0.1320
180.0000  0.0220  0.0220  0.0220  0.0220  0.0220  0.0220  0.0220  0.0220
        0.0476  0.0714  0.0952  0.1190  0.1428  0.1667  0.1905  0.9000
-180.0000  0.0000  0.0000  0.0000  0.0000  0.0000  0.0000  0.0000  0.0000
-170.0000  0.4000  0.4000  0.4000  0.4000  0.4000  0.4000  0.4000  0.4000
-165.0000  0.3000  0.3000  0.3000  0.3000  0.3000  0.3000  0.3000  0.3000
-160.0000  0.3000  0.3000  0.3000  0.3000  0.3000  0.3000  0.3000  0.3000
-135.0000  0.5000  0.5000  0.5000  0.5000  0.5000  0.5000  0.5000  0.5000
-90.0000  0.5000  0.5000  0.5000  0.5000  0.5000  0.5000  0.5000  0.5000
-30.0000  0.1740  0.1740  0.1740  0.1740  0.1740  0.1740  0.1740  0.1740
-23.0000  0.1120  0.1120  0.1120  0.1120  0.1120  0.1120  0.1120  0.1120
-16.0000  0.0730  0.0730  0.0730  0.0730  0.0730  0.0730  0.0730  0.0730
-15.0000  0.0540  0.0540  0.0540  0.0540  0.0540  0.0540  0.0540  0.0540
-14.0000  0.0000  0.0000  0.0000  0.0000  0.0000  0.0000  0.0000  0.0000
-13.0000  0.0000  0.0000  0.0000  0.0000  0.0000  0.0000  0.0000  0.0000
-12.0000  0.0000  0.0000  0.0000  0.0000  0.0000  0.0000  0.0000  0.0000
-11.0000  0.0000  0.0000  0.0000  0.0000  0.0000  0.0000  0.0000  0.0000
-10.0000  0.0000  0.0000  0.0000  0.0000  0.0000  0.0000  0.0000  0.0000
 -9.0000  0.0000  0.0000  0.0000  0.0000  0.0000  0.0000  0.0000  0.0000
 -8.0000  0.0000  0.0000  0.0000  0.0000  0.0000  0.0000  0.0000  0.0000
 -7.0000  0.0000  0.0000  0.0000  0.0000  0.0000  0.0000  0.0000  0.0000
 -6.0000  0.0000  0.0000  0.0000  0.0000  0.0000  0.0000  0.0000  0.0000
 -5.0000 -0.0551 -0.0568 -0.0582 -0.0588 -0.0591 -0.0595 -0.0598 -0.0598
 -4.0000 -0.0483 -0.0538 -0.0568 -0.0581 -0.0588 -0.0592 -0.0596 -0.0596
 -3.0000 -0.0303 -0.0460 -0.0527 -0.0558 -0.0575 -0.0586 -0.0594 -0.0594
 -2.0000 -0.0188 -0.0338 -0.0451 -0.0509 -0.0541 -0.0563 -0.0579 -0.0579
 -1.0000 -0.0501 -0.0317 -0.0343 -0.0425 -0.0480 -0.0519 -0.0544 -0.0544
  0.0000 -0.0451 -0.0514 -0.0485 -0.0385 -0.0386 -0.0434 -0.0480 -0.0480
  1.0000 -0.0412 -0.0463 -0.0490 -0.0507 -0.0521 -0.0468 -0.0438 -0.0438
  2.0000 -0.0402 -0.0449 -0.0468 -0.0478 -0.0485 -0.0492 -0.0497 -0.0497
  3.0000 -0.0396 -0.0444 -0.0465 -0.0478 -0.0487 -0.0494 -0.0501 -0.0501
  4.0000 -0.0387 -0.0438 -0.0461 -0.0475 -0.0486 -0.0495 -0.0503 -0.0503
  5.0000 -0.0375 -0.0428 -0.0453 -0.0469 -0.0481 -0.0491 -0.0499 -0.0499
  6.0000 -0.0358 -0.0413 -0.0441 -0.0458 -0.0470 -0.0480 -0.0489 -0.0489
  7.0000 -0.0334 -0.0392 -0.0421 -0.0439 -0.0452 -0.0462 -0.0469 -0.0469
  8.0000 -0.0301 -0.0361 -0.0390 -0.0407 -0.0417 -0.0423 -0.0425 -0.0425
  9.0000 -0.0253 -0.0312 -0.0339 -0.0354 -0.0364 -0.0372 -0.0379 -0.0379
 10.0000 -0.0195 -0.0259 -0.0298 -0.0327 -0.0347 -0.0346 -0.0336 -0.0336
 11.0000 -0.0151 -0.0238 -0.0289 -0.0311 -0.0307 -0.0298 -0.0297 -0.0297
 12.0000 -0.0118 -0.0204 -0.0237 -0.0246 -0.0225 -0.0247 -0.0208 -0.0208
 13.0000 -0.0100 -0.0114 -0.0129 -0.0126 -0.0124 -0.0122 -0.0115 -0.0115
 16.0000 -0.0730 -0.0730 -0.0730 -0.0730 -0.0730 -0.0730 -0.0730 -0.0730
 23.0000 -0.1120 -0.1120 -0.1120 -0.1120 -0.1120 -0.1120 -0.1120 -0.1120
 30.0000 -0.1740 -0.1740 -0.1740 -0.1740 -0.1740 -0.1740 -0.1740 -0.1740
 90.0000 -0.5000 -0.5000 -0.5000 -0.5000 -0.5000 -0.5000 -0.5000 -0.5000
135.0000 -0.5000 -0.5000 -0.5000 -0.5000 -0.5000 -0.5000 -0.5000 -0.5000
160.0000 -0.3000 -0.3000 -0.3000 -0.3000 -0.3000 -0.3000 -0.3000 -0.3000
165.0000 -0.3000 -0.3000 -0.3000 -0.3000 -0.3000 -0.3000 -0.3000 -0.3000
170.0000 -0.4000 -0.4000 -0.4000 -0.4000 -0.4000 -0.4000 -0.4000 -0.4000
180.0000  0.0000  0.0000  0.0000  0.0000  0.0000  0.0000  0.0000  0.0000
COMMENT #1 
COMMENT #2 
                     AF NAME   847 847 847
        0.0512  0.0768  0.1023  0.1279  0.1535  0.1791  0.2047  0.9000
-180.0000  0.0000  0.0000  0.0000  0.0000  0.0000  0.0000  0.0000  0.0000
-170.0000  0.7452  0.7452  0.7452  0.7452  0.7452  0.7452  0.7452  0.7452
-165.0000  0.6757  0.6757  0.6757  0.6757  0.6757  0.6757  0.6757  0.6757
-160.0000  0.6471  0.6471  0.6471  0.6471  0.6471  0.6471  0.6471  0.6471
-135.0000  1.0000  1.0000  1.0000  1.0000  1.0000  1.0000  1.0000  1.0000
-90.0000 -0.0627 -0.0627 -0.0627 -0.0627 -0.0627 -0.0627 -0.0627 -0.0627
-30.0000 -0.9900 -0.9900 -0.9900 -0.9900 -0.9900 -0.9900 -0.9900 -0.9900
-23.0000 -0.8422 -0.8422 -0.8422 -0.8422 -0.8422 -0.8422 -0.8422 -0.8422
-16.0000 -1.0680 -1.0680 -1.0680 -1.0680 -1.0680 -1.0680 -1.0680 -1.0680
-15.0000 -1.1900 -1.1900 -1.1900 -1.1900 -1.1900 -1.1900 -1.1900 -1.1900
-14.0000 -1.3330 -1.3330 -1.3330 -1.3330 -1.3330 -1.3330 -1.3330 -1.3330
-13.0000 -1.3340 -1.3340 -1.3340 -1.3340 -1.3340 -1.3340 -1.3340 -1.3340
-12.0000 -1.2550 -1.2550 -1.2550 -1.2550 -1.2550 -1.2550 -1.2550 -1.2550
-11.0000 -1.1610 -1.1610 -1.1610 -1.1610 -1.1610 -1.1610 -1.1610 -1.1610
-10.0000 -1.0550 -1.0550 -1.0550 -1.0550 -1.0550 -1.0550 -1.0550 -1.0550
 -9.0000 -0.9495 -0.9495 -0.9495 -0.9495 -0.9495 -0.9495 -0.9495 -0.9495
 -8.0000 -0.8440 -0.8440 -0.8440 -0.8440 -0.8440 -0.8440 -0.8440 -0.8440
 -7.0000 -0.7385 -0.7385 -0.7385 -0.7385 -0.7385 -0.7385 -0.7385 -0.7385
 -6.0000 -0.6330 -0.6330 -0.6330 -0.6330 -0.6330 -0.6330 -0.6330 -0.6330
 -5.0000 -0.3302 -0.3157 -0.3068 -0.3050 -0.3051 -0.3067 -0.3080 -0.3080
 -4.0000 -0.2340 -0.2165 -0.2050 -0.2006 -0.1989 -0.1984 -0.1984 -0.1984
 -3.0000 -0.1706 -0.1259 -0.1052 -0.0964 -0.0918 -0.0891 -0.0873 -0.0873
 -2.0000 -0.0583 -0.0507 -0.0156  0.0027  0.0131  0.0197  0.0244  0.0244
 -1.0000  0.1507  0.1178  0.0662  0.0866  0.1063  0.1194  0.1293  0.1293
  0.0000  0.2160  0.2470  0.2620  0.2303  0.2016  0.2038  0.2191  0.2191
  1.0000  0.3096  0.3325  0.3418  0.3475  0.3528  0.3587  0.3517  0.3517
  2.0000  0.4147  0.4384  0.4479  0.4535  0.4580  0.4624  0.4667  0.4667
  3.0000  0.5210  0.5467  0.5579  0.5651  0.5713  0.5772  0.5831  0.5831
  4.0000  0.6262  0.6540  0.6670  0.6758  0.6835  0.6908  0.6981  0.6981
  5.0000  0.7288  0.7593  0.7741  0.7845  0.7936  0.8022  0.8109  0.8109
  6.0000  0.8275  0.8612  0.8781  0.8901  0.9005  0.9104  0.9202  0.9202
  7.0000  0.9200  0.9575  0.9761  0.9890  0.9997  1.0095  1.0187  1.0187
  8.0000  1.0026  1.0433  1.0625  1.0760  1.0881  1.0999  1.1104  1.1104
  9.0000  1.0766  1.1259  1.1525  1.1721  1.1876  1.1960  1.2033  1.2033
 10.0000  1.1563  1.2165  1.2447  1.2611  1.2757  1.2799  1.2894  1.2894
 11.0000  1.2110  1.2686  1.2878  1.3120  1.3241  1.3448  1.3476  1.3476
 12.0000  1.1645  1.2189  1.2287  1.3178  1.3099  1.3535  1.3442  1.3442
 13.0000  0.9160  0.9194  0.9138  1.2135  1.1599  1.2723  1.2729  1.2729
 16.0000  1.0680  1.0680  1.0680  1.0680  1.0680  1.0680  1.0680  1.0680
 23.0000  0.8422  0.8422  0.8422  0.8422  0.8422  0.8422  0.8422  0.8422
 30.0000  0.9900  0.9900  0.9900  0.9900  0.9900  0.9900  0.9900  0.9900
 90.0000  0.0628  0.0628  0.0628  0.0628  0.0628  0.0628  0.0628  0.0628
135.0000 -1.0000 -1.0000 -1.0000 -1.0000 -1.0000 -1.0000 -1.0000 -1.0000
160.0000 -0.6471 -0.6471 -0.6471 -0.6471 -0.6471 -0.6471 -0.6471 -0.6471
165.0000 -0.6757 -0.6757 -0.6757 -0.6757 -0.6757 -0.6757 -0.6757 -0.6757
170.0000 -0.7452 -0.7452 -0.7452 -0.7452 -0.7452 -0.7452 -0.7452 -0.7452
180.0000  0.0000  0.0000  0.0000  0.0000  0.0000  0.0000  0.0000  0.0000
        0.0512  0.0768  0.1023  0.1279  0.1535  0.1791  0.2047  0.9000
-180.0000  0.0220  0.0220  0.0220  0.0220  0.0220  0.0220  0.0220  0.0220
-170.0000  0.1320  0.1320  0.1320  0.1320  0.1320  0.1320  0.1320  0.1320
-165.0000  0.2420  0.2420  0.2420  0.2420  0.2420  0.2420  0.2420  0.2420
-160.0000  0.3020  0.3020  0.3020  0.3020  0.3020  0.3020  0.3020  0.3020
-135.0000  1.1945  1.1945  1.1945  1.1945  1.1945  1.1945  1.1945  1.1945
-90.0000  2.0220  2.0220  2.0220  2.0220  2.0220  2.0220  2.0220  2.0220
-30.0000  0.5620  0.5620  0.5620  0.5620  0.5620  0.5620  0.5620  0.5620
-23.0000  0.3831  0.3831  0.3831  0.3831  0.3831  0.3831  0.3831  0.3831
-16.0000  0.1550  0.1550  0.1550  0.1550  0.1550  0.1550  0.1550  0.1550
-15.0000  0.1020  0.1020  0.1020  0.1020  0.1020  0.1020  0.1020  0.1020
-14.0000  0.0380  0.0380  0.0380  0.0380  0.0380  0.0380  0.0380  0.0380
-13.0000  0.0264  0.0264  0.0264  0.0264  0.0264  0.0264  0.0264  0.0264
-12.0000  0.0220  0.0220  0.0220  0.0220  0.0220  0.0220  0.0220  0.0220
-11.0000  0.0196  0.0196  0.0196  0.0196  0.0196  0.0196  0.0196  0.0196
-10.0000  0.0174  0.0174  0.0174  0.0174  0.0174  0.0174  0.0174  0.0174
 -9.0000  0.0154  0.0154  0.0154  0.0154  0.0154  0.0154  0.0154  0.0154
 -8.0000  0.0138  0.0138  0.0138  0.0138  0.0138  0.0138  0.0138  0.0138
 -7.0000  0.0122  0.0122  0.0122  0.0122  0.0122  0.0122  0.0122  0.0122
 -6.0000  0.0110  0.0110  0.0110  0.0110  0.0110  0.0110  0.0110  0.0110
 -5.0000  0.0303  0.0261  0.0234  0.0219  0.0210  0.0200  0.0196  0.0196
 -4.0000  0.0228  0.0193  0.0177  0.0169  0.0164  0.0160  0.0158  0.0158
 -3.0000  0.0223  0.0180  0.0159  0.0147  0.0140  0.0134  0.0130  0.0130
 -2.0000  0.0220  0.0180  0.0158  0.0144  0.0135  0.0129  0.0124  0.0124
 -1.0000  0.0204  0.0176  0.0156  0.0144  0.0135  0.0129  0.0123  0.0123
  0.0000  0.0198  0.0170  0.0154  0.0143  0.0134  0.0128  0.0124  0.0124
  1.0000  0.0201  0.0171  0.0154  0.0143  0.0135  0.0129  0.0124  0.0124
  2.0000  0.0208  0.0177  0.0159  0.0147  0.0139  0.0132  0.0127  0.0127
  3.0000  0.0218  0.0185  0.0166  0.0154  0.0146  0.0139  0.0134  0.0134
  4.0000  0.0230  0.0195  0.0176  0.0163  0.0154  0.0147  0.0141  0.0141
  5.0000  0.0244  0.0207  0.0187  0.0173  0.0164  0.0156  0.0151  0.0151
  6.0000  0.0263  0.0223  0.0201  0.0187  0.0176  0.0169  0.0163  0.0163
  7.0000  0.0288  0.0244  0.0221  0.0206  0.0197  0.0190  0.0187  0.0187
  8.0000  0.0321  0.0275  0.0253  0.0241  0.0234  0.0231  0.0226  0.0226
  9.0000  0.0368  0.0323  0.0304  0.0295  0.0292  0.0286  0.0271  0.0271
 10.0000  0.0433  0.0395  0.0381  0.0377  0.0364  0.0340  0.0322  0.0322
 11.0000  0.0537  0.0504  0.0496  0.0473  0.0443  0.0406  0.0404  0.0404
 12.0000  0.0695  0.0655  0.0650  0.0609  0.0554  0.0529  0.0498  0.0498
 13.0000  0.1298  0.1315  0.1347  0.0782  0.0810  0.0669  0.0652  0.0652
 16.0000  0.1550  0.1550  0.1550  0.1550  0.1550  0.1550  0.1550  0.1550
 23.0000  0.3831  0.3831  0.3831  0.3831  0.3831  0.3831  0.3831  0.3831
 30.0000  0.5620  0.5620  0.5620  0.5620  0.5620  0.5620  0.5620  0.5620
 90.0000  2.0220  2.0220  2.0220  2.0220  2.0220  2.0220  2.0220  2.0220
135.0000  1.1945  1.1945  1.1945  1.1945  1.1945  1.1945  1.1945  1.1945
160.0000  0.3020  0.3020  0.3020  0.3020  0.3020  0.3020  0.3020  0.3020
165.0000  0.2420  0.2420  0.2420  0.2420  0.2420  0.2420  0.2420  0.2420
170.0000  0.1320  0.1320  0.1320  0.1320  0.1320  0.1320  0.1320  0.1320
180.0000  0.0220  0.0220  0.0220  0.0220  0.0220  0.0220  0.0220  0.0220
        0.0512  0.0768  0.1023  0.1279  0.1535  0.1791  0.2047  0.9000
-180.0000  0.0000  0.0000  0.0000  0.0000  0.0000  0.0000  0.0000  0.0000
-170.0000  0.4000  0.4000  0.4000  0.4000  0.4000  0.4000  0.4000  0.4000
-165.0000  0.3000  0.3000  0.3000  0.3000  0.3000  0.3000  0.3000  0.3000
-160.0000  0.3000  0.3000  0.3000  0.3000  0.3000  0.3000  0.3000  0.3000
-135.0000  0.5000  0.5000  0.5000  0.5000  0.5000  0.5000  0.5000  0.5000
-90.0000  0.5000  0.5000  0.5000  0.5000  0.5000  0.5000  0.5000  0.5000
-30.0000  0.1740  0.1740  0.1740  0.1740  0.1740  0.1740  0.1740  0.1740
-23.0000  0.1120  0.1120  0.1120  0.1120  0.1120  0.1120  0.1120  0.1120
-16.0000  0.0730  0.0730  0.0730  0.0730  0.0730  0.0730  0.0730  0.0730
-15.0000  0.0540  0.0540  0.0540  0.0540  0.0540  0.0540  0.0540  0.0540
-14.0000  0.0000  0.0000  0.0000  0.0000  0.0000  0.0000  0.0000  0.0000
-13.0000  0.0000  0.0000  0.0000  0.0000  0.0000  0.0000  0.0000  0.0000
-12.0000  0.0000  0.0000  0.0000  0.0000  0.0000  0.0000  0.0000  0.0000
-11.0000  0.0000  0.0000  0.0000  0.0000  0.0000  0.0000  0.0000  0.0000
-10.0000  0.0000  0.0000  0.0000  0.0000  0.0000  0.0000  0.0000  0.0000
 -9.0000  0.0000  0.0000  0.0000  0.0000  0.0000  0.0000  0.0000  0.0000
 -8.0000  0.0000  0.0000  0.0000  0.0000  0.0000  0.0000  0.0000  0.0000
 -7.0000  0.0000  0.0000  0.0000  0.0000  0.0000  0.0000  0.0000  0.0000
 -6.0000  0.0000  0.0000  0.0000  0.0000  0.0000  0.0000  0.0000  0.0000
 -5.0000 -0.0540 -0.0554 -0.0566 -0.0570 -0.0573 -0.0576 -0.0581 -0.0581
 -4.0000 -0.0497 -0.0531 -0.0552 -0.0559 -0.0563 -0.0567 -0.0570 -0.0570
 -3.0000 -0.0314 -0.0457 -0.0517 -0.0543 -0.0559 -0.0569 -0.0577 -0.0577
 -2.0000 -0.0220 -0.0322 -0.0432 -0.0489 -0.0523 -0.0545 -0.0561 -0.0561
 -1.0000 -0.0464 -0.0395 -0.0326 -0.0395 -0.0453 -0.0492 -0.0522 -0.0522
  0.0000 -0.0417 -0.0472 -0.0496 -0.0435 -0.0386 -0.0402 -0.0445 -0.0445
  1.0000 -0.0399 -0.0440 -0.0456 -0.0466 -0.0475 -0.0485 -0.0469 -0.0469
  2.0000 -0.0396 -0.0437 -0.0453 -0.0463 -0.0470 -0.0476 -0.0482 -0.0482
  3.0000 -0.0392 -0.0435 -0.0453 -0.0465 -0.0474 -0.0482 -0.0489 -0.0489
  4.0000 -0.0386 -0.0430 -0.0450 -0.0463 -0.0474 -0.0483 -0.0491 -0.0491
  5.0000 -0.0377 -0.0421 -0.0443 -0.0458 -0.0469 -0.0478 -0.0486 -0.0486
  6.0000 -0.0362 -0.0408 -0.0431 -0.0447 -0.0458 -0.0467 -0.0475 -0.0475
  7.0000 -0.0339 -0.0386 -0.0410 -0.0424 -0.0434 -0.0440 -0.0443 -0.0443
  8.0000 -0.0305 -0.0350 -0.0371 -0.0384 -0.0392 -0.0398 -0.0402 -0.0402
  9.0000 -0.0262 -0.0310 -0.0339 -0.0358 -0.0369 -0.0375 -0.0369 -0.0369
 10.0000 -0.0228 -0.0287 -0.0317 -0.0330 -0.0345 -0.0334 -0.0331 -0.0331
 11.0000 -0.0187 -0.0236 -0.0252 -0.0269 -0.0273 -0.0280 -0.0271 -0.0271
 12.0000 -0.0118 -0.0133 -0.0138 -0.0197 -0.0163 -0.0194 -0.0157 -0.0157
 13.0000 -0.0463 -0.0498 -0.0533 -0.0123 -0.0174 -0.0104 -0.0106 -0.0106
 16.0000 -0.0730 -0.0730 -0.0730 -0.0730 -0.0730 -0.0730 -0.0730 -0.0730
 23.0000 -0.1120 -0.1120 -0.1120 -0.1120 -0.1120 -0.1120 -0.1120 -0.1120
 30.0000 -0.1740 -0.1740 -0.1740 -0.1740 -0.1740 -0.1740 -0.1740 -0.1740
 90.0000 -0.5000 -0.5000 -0.5000 -0.5000 -0.5000 -0.5000 -0.5000 -0.5000
135.0000 -0.5000 -0.5000 -0.5000 -0.5000 -0.5000 -0.5000 -0.5000 -0.5000
160.0000 -0.3000 -0.3000 -0.3000 -0.3000 -0.3000 -0.3000 -0.3000 -0.3000
165.0000 -0.3000 -0.3000 -0.3000 -0.3000 -0.3000 -0.3000 -0.3000 -0.3000
170.0000 -0.4000 -0.4000 -0.4000 -0.4000 -0.4000 -0.4000 -0.4000 -0.4000
180.0000  0.0000  0.0000  0.0000  0.0000  0.0000  0.0000  0.0000  0.0000
COMMENT #1 
COMMENT #2 
                     AF NAME   847 847 847
        0.0547  0.0821  0.1095  0.1368  0.1642  0.1916  0.2189  0.9000
-180.0000  0.0000  0.0000  0.0000  0.0000  0.0000  0.0000  0.0000  0.0000
-170.0000  0.7452  0.7452  0.7452  0.7452  0.7452  0.7452  0.7452  0.7452
-165.0000  0.6757  0.6757  0.6757  0.6757  0.6757  0.6757  0.6757  0.6757
-160.0000  0.6471  0.6471  0.6471  0.6471  0.6471  0.6471  0.6471  0.6471
-135.0000  1.0000  1.0000  1.0000  1.0000  1.0000  1.0000  1.0000  1.0000
-90.0000 -0.0627 -0.0627 -0.0627 -0.0627 -0.0627 -0.0627 -0.0627 -0.0627
-30.0000 -0.9900 -0.9900 -0.9900 -0.9900 -0.9900 -0.9900 -0.9900 -0.9900
-23.0000 -0.8422 -0.8422 -0.8422 -0.8422 -0.8422 -0.8422 -0.8422 -0.8422
-16.0000 -1.0680 -1.0680 -1.0680 -1.0680 -1.0680 -1.0680 -1.0680 -1.0680
-15.0000 -1.1900 -1.1900 -1.1900 -1.1900 -1.1900 -1.1900 -1.1900 -1.1900
-14.0000 -1.3330 -1.3330 -1.3330 -1.3330 -1.3330 -1.3330 -1.3330 -1.3330
-13.0000 -1.3340 -1.3340 -1.3340 -1.3340 -1.3340 -1.3340 -1.3340 -1.3340
-12.0000 -1.2550 -1.2550 -1.2550 -1.2550 -1.2550 -1.2550 -1.2550 -1.2550
-11.0000 -1.1610 -1.1610 -1.1610 -1.1610 -1.1610 -1.1610 -1.1610 -1.1610
-10.0000 -1.0550 -1.0550 -1.0550 -1.0550 -1.0550 -1.0550 -1.0550 -1.0550
 -9.0000 -0.9495 -0.9495 -0.9495 -0.9495 -0.9495 -0.9495 -0.9495 -0.9495
 -8.0000 -0.8440 -0.8440 -0.8440 -0.8440 -0.8440 -0.8440 -0.8440 -0.8440
 -7.0000 -0.7385 -0.7385 -0.7385 -0.7385 -0.7385 -0.7385 -0.7385 -0.7385
 -6.0000 -0.6330 -0.6330 -0.6330 -0.6330 -0.6330 -0.6330 -0.6330 -0.6330
 -5.0000 -0.3328 -0.3199 -0.3114 -0.3092 -0.3108 -0.3117 -0.3146 -0.3146
 -4.0000 -0.2291 -0.2137 -0.2047 -0.2024 -0.2019 -0.2022 -0.2019 -0.2019
 -3.0000 -0.1668 -0.1242 -0.1054 -0.0974 -0.0932 -0.0907 -0.0892 -0.0892
 -2.0000 -0.0518 -0.0511 -0.0166  0.0015  0.0119  0.0186  0.0234  0.0234
 -1.0000  0.1318  0.1358  0.0678  0.0829  0.1033  0.1173  0.1281  0.1281
  0.0000  0.2061  0.2312  0.2434  0.2438  0.2100  0.2026  0.2158  0.2158
  1.0000  0.3078  0.3279  0.3351  0.3393  0.3430  0.3467  0.3509  0.3509
  2.0000  0.4158  0.4371  0.4457  0.4513  0.4562  0.4609  0.4657  0.4657
  3.0000  0.5240  0.5469  0.5572  0.5645  0.5710  0.5774  0.5838  0.5838
  4.0000  0.6308  0.6554  0.6674  0.6762  0.6842  0.6920  0.7000  0.7000
  5.0000  0.7348  0.7617  0.7755  0.7858  0.7952  0.8045  0.8138  0.8138
  6.0000  0.8348  0.8644  0.8800  0.8917  0.9021  0.9121  0.9220  0.9220
  7.0000  0.9281  0.9598  0.9759  0.9874  0.9977  1.0078  1.0166  1.0166
  8.0000  1.0120  1.0467  1.0664  1.0824  1.0966  1.1057  1.1160  1.1160
  9.0000  1.0981  1.1428  1.1672  1.1836  1.1915  1.2014  1.2099  1.2099
 10.0000  1.1801  1.2237  1.2430  1.2541  1.2718  1.2781  1.2889  1.2889
 11.0000  1.2023  1.2431  1.2549  1.2698  1.3078  1.3169  1.3422  1.3422
 12.0000  1.0973  1.1363  1.0832  1.1615  1.2554  1.3192  1.3067  1.3067
 13.0000  0.9014  0.9049  0.6595  0.9022  0.6541  1.2424  1.2021  1.2021
 16.0000  1.0680  1.0680  1.0680  1.0680  1.0680  1.0680  1.0680  1.0680
 23.0000  0.8422  0.8422  0.8422  0.8422  0.8422  0.8422  0.8422  0.8422
 30.0000  0.9900  0.9900  0.9900  0.9900  0.9900  0.9900  0.9900  0.9900
 90.0000  0.0628  0.0628  0.0628  0.0628  0.0628  0.0628  0.0628  0.0628
135.0000 -1.0000 -1.0000 -1.0000 -1.0000 -1.0000 -1.0000 -1.0000 -1.0000
160.0000 -0.6471 -0.6471 -0.6471 -0.6471 -0.6471 -0.6471 -0.6471 -0.6471
165.0000 -0.6757 -0.6757 -0.6757 -0.6757 -0.6757 -0.6757 -0.6757 -0.6757
170.0000 -0.7452 -0.7452 -0.7452 -0.7452 -0.7452 -0.7452 -0.7452 -0.7452
180.0000  0.0000  0.0000  0.0000  0.0000  0.0000  0.0000  0.0000  0.0000
        0.0547  0.0821  0.1095  0.1368  0.1642  0.1916  0.2189  0.9000
-180.0000  0.0220  0.0220  0.0220  0.0220  0.0220  0.0220  0.0220  0.0220
-170.0000  0.1320  0.1320  0.1320  0.1320  0.1320  0.1320  0.1320  0.1320
-165.0000  0.2420  0.2420  0.2420  0.2420  0.2420  0.2420  0.2420  0.2420
-160.0000  0.3020  0.3020  0.3020  0.3020  0.3020  0.3020  0.3020  0.3020
-135.0000  1.1945  1.1945  1.1945  1.1945  1.1945  1.1945  1.1945  1.1945
-90.0000  2.0220  2.0220  2.0220  2.0220  2.0220  2.0220  2.0220  2.0220
-30.0000  0.5620  0.5620  0.5620  0.5620  0.5620  0.5620  0.5620  0.5620
-23.0000  0.3831  0.3831  0.3831  0.3831  0.3831  0.3831  0.3831  0.3831
-16.0000  0.1550  0.1550  0.1550  0.1550  0.1550  0.1550  0.1550  0.1550
-15.0000  0.1020  0.1020  0.1020  0.1020  0.1020  0.1020  0.1020  0.1020
-14.0000  0.0380  0.0380  0.0380  0.0380  0.0380  0.0380  0.0380  0.0380
-13.0000  0.0264  0.0264  0.0264  0.0264  0.0264  0.0264  0.0264  0.0264
-12.0000  0.0220  0.0220  0.0220  0.0220  0.0220  0.0220  0.0220  0.0220
-11.0000  0.0196  0.0196  0.0196  0.0196  0.0196  0.0196  0.0196  0.0196
-10.0000  0.0174  0.0174  0.0174  0.0174  0.0174  0.0174  0.0174  0.0174
 -9.0000  0.0154  0.0154  0.0154  0.0154  0.0154  0.0154  0.0154  0.0154
 -8.0000  0.0138  0.0138  0.0138  0.0138  0.0138  0.0138  0.0138  0.0138
 -7.0000  0.0122  0.0122  0.0122  0.0122  0.0122  0.0122  0.0122  0.0122
 -6.0000  0.0110  0.0110  0.0110  0.0110  0.0110  0.0110  0.0110  0.0110
 -5.0000  0.0307  0.0267  0.0242  0.0225  0.0211  0.0206  0.0197  0.0197
 -4.0000  0.0234  0.0207  0.0191  0.0181  0.0174  0.0169  0.0153  0.0153
 -3.0000  0.0210  0.0172  0.0153  0.0143  0.0136  0.0131  0.0128  0.0128
 -2.0000  0.0208  0.0172  0.0152  0.0139  0.0131  0.0125  0.0120  0.0120
 -1.0000  0.0193  0.0167  0.0149  0.0138  0.0130  0.0124  0.0119  0.0119
  0.0000  0.0190  0.0162  0.0147  0.0137  0.0128  0.0123  0.0119  0.0119
  1.0000  0.0193  0.0165  0.0148  0.0138  0.0130  0.0124  0.0119  0.0119
  2.0000  0.0200  0.0171  0.0154  0.0143  0.0135  0.0128  0.0123  0.0123
  3.0000  0.0210  0.0179  0.0161  0.0150  0.0141  0.0135  0.0130  0.0130
  4.0000  0.0221  0.0189  0.0170  0.0158  0.0149  0.0143  0.0138  0.0138
  5.0000  0.0236  0.0201  0.0182  0.0169  0.0160  0.0153  0.0147  0.0147
  6.0000  0.0255  0.0217  0.0197  0.0183  0.0174  0.0168  0.0163  0.0163
  7.0000  0.0282  0.0242  0.0221  0.0210  0.0203  0.0200  0.0200  0.0200
  8.0000  0.0320  0.0281  0.0264  0.0255  0.0252  0.0244  0.0233  0.0233
  9.0000  0.0376  0.0342  0.0329  0.0324  0.0310  0.0291  0.0290  0.0290
 10.0000  0.0464  0.0436  0.0427  0.0412  0.0372  0.0364  0.0347  0.0347
 11.0000  0.0598  0.0572  0.0569  0.0531  0.0489  0.0455  0.0426  0.0426
 12.0000  0.0806  0.0767  0.0837  0.0723  0.0614  0.0543  0.0546  0.0546
 13.0000  0.1387  0.1403  0.1242  0.1444  0.1264  0.0715  0.0760  0.0760
 16.0000  0.1550  0.1550  0.1550  0.1550  0.1550  0.1550  0.1550  0.1550
 23.0000  0.3831  0.3831  0.3831  0.3831  0.3831  0.3831  0.3831  0.3831
 30.0000  0.5620  0.5620  0.5620  0.5620  0.5620  0.5620  0.5620  0.5620
 90.0000  2.0220  2.0220  2.0220  2.0220  2.0220  2.0220  2.0220  2.0220
135.0000  1.1945  1.1945  1.1945  1.1945  1.1945  1.1945  1.1945  1.1945
160.0000  0.3020  0.3020  0.3020  0.3020  0.3020  0.3020  0.3020  0.3020
165.0000  0.2420  0.2420  0.2420  0.2420  0.2420  0.2420  0.2420  0.2420
170.0000  0.1320  0.1320  0.1320  0.1320  0.1320  0.1320  0.1320  0.1320
180.0000  0.0220  0.0220  0.0220  0.0220  0.0220  0.0220  0.0220  0.0220
        0.0547  0.0821  0.1095  0.1368  0.1642  0.1916  0.2189  0.9000
-180.0000  0.0000  0.0000  0.0000  0.0000  0.0000  0.0000  0.0000  0.0000
-170.0000  0.4000  0.4000  0.4000  0.4000  0.4000  0.4000  0.4000  0.4000
-165.0000  0.3000  0.3000  0.3000  0.3000  0.3000  0.3000  0.3000  0.3000
-160.0000  0.3000  0.3000  0.3000  0.3000  0.3000  0.3000  0.3000  0.3000
-135.0000  0.5000  0.5000  0.5000  0.5000  0.5000  0.5000  0.5000  0.5000
-90.0000  0.5000  0.5000  0.5000  0.5000  0.5000  0.5000  0.5000  0.5000
-30.0000  0.1740  0.1740  0.1740  0.1740  0.1740  0.1740  0.1740  0.1740
-23.0000  0.1120  0.1120  0.1120  0.1120  0.1120  0.1120  0.1120  0.1120
-16.0000  0.0730  0.0730  0.0730  0.0730  0.0730  0.0730  0.0730  0.0730
-15.0000  0.0540  0.0540  0.0540  0.0540  0.0540  0.0540  0.0540  0.0540
-14.0000  0.0000  0.0000  0.0000  0.0000  0.0000  0.0000  0.0000  0.0000
-13.0000  0.0000  0.0000  0.0000  0.0000  0.0000  0.0000  0.0000  0.0000
-12.0000  0.0000  0.0000  0.0000  0.0000  0.0000  0.0000  0.0000  0.0000
-11.0000  0.0000  0.0000  0.0000  0.0000  0.0000  0.0000  0.0000  0.0000
-10.0000  0.0000  0.0000  0.0000  0.0000  0.0000  0.0000  0.0000  0.0000
 -9.0000  0.0000  0.0000  0.0000  0.0000  0.0000  0.0000  0.0000  0.0000
 -8.0000  0.0000  0.0000  0.0000  0.0000  0.0000  0.0000  0.0000  0.0000
 -7.0000  0.0000  0.0000  0.0000  0.0000  0.0000  0.0000  0.0000  0.0000
 -6.0000  0.0000  0.0000  0.0000  0.0000  0.0000  0.0000  0.0000  0.0000
 -5.0000 -0.0537 -0.0552 -0.0564 -0.0564 -0.0566 -0.0570 -0.0575 -0.0575
 -4.0000 -0.0506 -0.0529 -0.0545 -0.0551 -0.0556 -0.0561 -0.0578 -0.0578
 -3.0000 -0.0336 -0.0468 -0.0522 -0.0546 -0.0560 -0.0570 -0.0578 -0.0578
 -2.0000 -0.0247 -0.0328 -0.0434 -0.0491 -0.0525 -0.0547 -0.0564 -0.0564
 -1.0000 -0.0443 -0.0443 -0.0333 -0.0389 -0.0450 -0.0491 -0.0523 -0.0523
  0.0000 -0.0405 -0.0451 -0.0472 -0.0470 -0.0408 -0.0402 -0.0440 -0.0440
  1.0000 -0.0399 -0.0436 -0.0449 -0.0456 -0.0462 -0.0468 -0.0474 -0.0474
  2.0000 -0.0399 -0.0436 -0.0451 -0.0461 -0.0469 -0.0476 -0.0482 -0.0482
  3.0000 -0.0397 -0.0436 -0.0453 -0.0465 -0.0474 -0.0483 -0.0490 -0.0490
  4.0000 -0.0393 -0.0432 -0.0451 -0.0464 -0.0475 -0.0484 -0.0492 -0.0492
  5.0000 -0.0384 -0.0424 -0.0445 -0.0459 -0.0470 -0.0480 -0.0487 -0.0487
  6.0000 -0.0370 -0.0411 -0.0432 -0.0447 -0.0458 -0.0466 -0.0471 -0.0471
  7.0000 -0.0347 -0.0387 -0.0406 -0.0418 -0.0425 -0.0430 -0.0432 -0.0432
  8.0000 -0.0311 -0.0350 -0.0371 -0.0386 -0.0397 -0.0401 -0.0403 -0.0403
  9.0000 -0.0278 -0.0327 -0.0354 -0.0368 -0.0371 -0.0373 -0.0372 -0.0372
 10.0000 -0.0251 -0.0296 -0.0314 -0.0323 -0.0332 -0.0329 -0.0323 -0.0323
 11.0000 -0.0192 -0.0223 -0.0232 -0.0236 -0.0263 -0.0251 -0.0258 -0.0258
 12.0000 -0.0157 -0.0151 -0.0247 -0.0151 -0.0140 -0.0155 -0.0136 -0.0136
 13.0000 -0.0527 -0.0562 -0.0329 -0.0613 -0.0359 -0.0123 -0.0165 -0.0165
 16.0000 -0.0730 -0.0730 -0.0730 -0.0730 -0.0730 -0.0730 -0.0730 -0.0730
 23.0000 -0.1120 -0.1120 -0.1120 -0.1120 -0.1120 -0.1120 -0.1120 -0.1120
 30.0000 -0.1740 -0.1740 -0.1740 -0.1740 -0.1740 -0.1740 -0.1740 -0.1740
 90.0000 -0.5000 -0.5000 -0.5000 -0.5000 -0.5000 -0.5000 -0.5000 -0.5000
135.0000 -0.5000 -0.5000 -0.5000 -0.5000 -0.5000 -0.5000 -0.5000 -0.5000
160.0000 -0.3000 -0.3000 -0.3000 -0.3000 -0.3000 -0.3000 -0.3000 -0.3000
165.0000 -0.3000 -0.3000 -0.3000 -0.3000 -0.3000 -0.3000 -0.3000 -0.3000
170.0000 -0.4000 -0.4000 -0.4000 -0.4000 -0.4000 -0.4000 -0.4000 -0.4000
180.0000  0.0000  0.0000  0.0000  0.0000  0.0000  0.0000  0.0000  0.0000
COMMENT #1 
COMMENT #2 
                     AF NAME   847 847 847
        0.0583  0.0874  0.1166  0.1457  0.1749  0.2040  0.2332  0.9000
-180.0000  0.0000  0.0000  0.0000  0.0000  0.0000  0.0000  0.0000  0.0000
-170.0000  0.7452  0.7452  0.7452  0.7452  0.7452  0.7452  0.7452  0.7452
-165.0000  0.6757  0.6757  0.6757  0.6757  0.6757  0.6757  0.6757  0.6757
-160.0000  0.6471  0.6471  0.6471  0.6471  0.6471  0.6471  0.6471  0.6471
-135.0000  1.0000  1.0000  1.0000  1.0000  1.0000  1.0000  1.0000  1.0000
-90.0000 -0.0627 -0.0627 -0.0627 -0.0627 -0.0627 -0.0627 -0.0627 -0.0627
-30.0000 -0.9900 -0.9900 -0.9900 -0.9900 -0.9900 -0.9900 -0.9900 -0.9900
-23.0000 -0.8422 -0.8422 -0.8422 -0.8422 -0.8422 -0.8422 -0.8422 -0.8422
-16.0000 -1.0680 -1.0680 -1.0680 -1.0680 -1.0680 -1.0680 -1.0680 -1.0680
-15.0000 -1.1900 -1.1900 -1.1900 -1.1900 -1.1900 -1.1900 -1.1900 -1.1900
-14.0000 -1.3330 -1.3330 -1.3330 -1.3330 -1.3330 -1.3330 -1.3330 -1.3330
-13.0000 -1.3340 -1.3340 -1.3340 -1.3340 -1.3340 -1.3340 -1.3340 -1.3340
-12.0000 -1.2550 -1.2550 -1.2550 -1.2550 -1.2550 -1.2550 -1.2550 -1.2550
-11.0000 -1.1610 -1.1610 -1.1610 -1.1610 -1.1610 -1.1610 -1.1610 -1.1610
-10.0000 -1.0550 -1.0550 -1.0550 -1.0550 -1.0550 -1.0550 -1.0550 -1.0550
 -9.0000 -0.9495 -0.9495 -0.9495 -0.9495 -0.9495 -0.9495 -0.9495 -0.9495
 -8.0000 -0.8440 -0.8440 -0.8440 -0.8440 -0.8440 -0.8440 -0.8440 -0.8440
 -7.0000 -0.7385 -0.7385 -0.7385 -0.7385 -0.7385 -0.7385 -0.7385 -0.7385
 -6.0000 -0.6330 -0.6330 -0.6330 -0.6330 -0.6330 -0.6330 -0.6330 -0.6330
 -5.0000 -0.3359 -0.3234 -0.3157 -0.3155 -0.3161 -0.3187 -0.3199 -0.3199
 -4.0000 -0.2296 -0.2155 -0.2085 -0.2070 -0.2071 -0.2077 -0.2085 -0.2085
 -3.0000 -0.1624 -0.1235 -0.1073 -0.1005 -0.0967 -0.0946 -0.0935 -0.0935
 -2.0000 -0.0597 -0.0496 -0.0169 -0.0004  0.0094  0.0156  0.0199  0.0199
 -1.0000  0.1221  0.1325  0.0675  0.0818  0.1015  0.1153  0.1257  0.1257
  0.0000  0.2023  0.2229  0.2327  0.2400  0.2115  0.2023  0.2147  0.2147
  1.0000  0.3073  0.3253  0.3316  0.3356  0.3391  0.3426  0.3464  0.3464
  2.0000  0.4166  0.4358  0.4438  0.4494  0.4546  0.4598  0.4650  0.4650
  3.0000  0.5257  0.5462  0.5559  0.5632  0.5700  0.5768  0.5838  0.5838
  4.0000  0.6330  0.6552  0.6666  0.6754  0.6837  0.6920  0.7006  0.7006
  5.0000  0.7377  0.7620  0.7751  0.7855  0.7952  0.8049  0.8150  0.8150
  6.0000  0.8383  0.8649  0.8796  0.8910  0.9014  0.9112  0.9207  0.9207
  7.0000  0.9315  0.9593  0.9737  0.9851  0.9962  1.0077  1.0201  1.0201
  8.0000  1.0166  1.0494  1.0705  1.0875  1.0976  1.1075  1.1182  1.1182
  9.0000  1.1100  1.1506  1.1714  1.1809  1.1928  1.2007  1.2123  1.2123
 10.0000  1.1895  1.2237  1.2359  1.2534  1.2620  1.2777  1.2843  1.2843
 11.0000  1.2041  1.2340  1.2270  1.2760  1.2960  1.3108  1.3133  1.3133
 12.0000  1.1007  1.1365  1.1236  1.1929  1.2844  1.2574  1.2816  1.2816
 13.0000  0.9185  0.9288  0.6905  0.6914  0.6906  1.0975  1.2816  1.2816
 16.0000  1.0680  1.0680  1.0680  1.0680  1.0680  1.0680  1.0680  1.0680
 23.0000  0.8422  0.8422  0.8422  0.8422  0.8422  0.8422  0.8422  0.8422
 30.0000  0.9900  0.9900  0.9900  0.9900  0.9900  0.9900  0.9900  0.9900
 90.0000  0.0628  0.0628  0.0628  0.0628  0.0628  0.0628  0.0628  0.0628
135.0000 -1.0000 -1.0000 -1.0000 -1.0000 -1.0000 -1.0000 -1.0000 -1.0000
160.0000 -0.6471 -0.6471 -0.6471 -0.6471 -0.6471 -0.6471 -0.6471 -0.6471
165.0000 -0.6757 -0.6757 -0.6757 -0.6757 -0.6757 -0.6757 -0.6757 -0.6757
170.0000 -0.7452 -0.7452 -0.7452 -0.7452 -0.7452 -0.7452 -0.7452 -0.7452
180.0000  0.0000  0.0000  0.0000  0.0000  0.0000  0.0000  0.0000  0.0000
        0.0583  0.0874  0.1166  0.1457  0.1749  0.2040  0.2332  0.9000
-180.0000  0.0220  0.0220  0.0220  0.0220  0.0220  0.0220  0.0220  0.0220
-170.0000  0.1320  0.1320  0.1320  0.1320  0.1320  0.1320  0.1320  0.1320
-165.0000  0.2420  0.2420  0.2420  0.2420  0.2420  0.2420  0.2420  0.2420
-160.0000  0.3020  0.3020  0.3020  0.3020  0.3020  0.3020  0.3020  0.3020
-135.0000  1.1945  1.1945  1.1945  1.1945  1.1945  1.1945  1.1945  1.1945
-90.0000  2.0220  2.0220  2.0220  2.0220  2.0220  2.0220  2.0220  2.0220
-30.0000  0.5620  0.5620  0.5620  0.5620  0.5620  0.5620  0.5620  0.5620
-23.0000  0.3831  0.3831  0.3831  0.3831  0.3831  0.3831  0.3831  0.3831
-16.0000  0.1550  0.1550  0.1550  0.1550  0.1550  0.1550  0.1550  0.1550
-15.0000  0.1020  0.1020  0.1020  0.1020  0.1020  0.1020  0.1020  0.1020
-14.0000  0.0380  0.0380  0.0380  0.0380  0.0380  0.0380  0.0380  0.0380
-13.0000  0.0264  0.0264  0.0264  0.0264  0.0264  0.0264  0.0264  0.0264
-12.0000  0.0220  0.0220  0.0220  0.0220  0.0220  0.0220  0.0220  0.0220
-11.0000  0.0196  0.0196  0.0196  0.0196  0.0196  0.0196  0.0196  0.0196
-10.0000  0.0174  0.0174  0.0174  0.0174  0.0174  0.0174  0.0174  0.0174
 -9.0000  0.0154  0.0154  0.0154  0.0154  0.0154  0.0154  0.0154  0.0154
 -8.0000  0.0138  0.0138  0.0138  0.0138  0.0138  0.0138  0.0138  0.0138
 -7.0000  0.0122  0.0122  0.0122  0.0122  0.0122  0.0122  0.0122  0.0122
 -6.0000  0.0110  0.0110  0.0110  0.0110  0.0110  0.0110  0.0110  0.0110
 -5.0000  0.0310  0.0271  0.0239  0.0225  0.0218  0.0206  0.0207  0.0207
 -4.0000  0.0238  0.0209  0.0193  0.0183  0.0175  0.0169  0.0165  0.0165
 -3.0000  0.0202  0.0166  0.0149  0.0140  0.0134  0.0131  0.0128  0.0128
 -2.0000  0.0199  0.0165  0.0147  0.0135  0.0127  0.0122  0.0118  0.0118
 -1.0000  0.0186  0.0161  0.0144  0.0134  0.0127  0.0121  0.0116  0.0116
  0.0000  0.0184  0.0157  0.0142  0.0132  0.0124  0.0119  0.0116  0.0116
  1.0000  0.0188  0.0160  0.0144  0.0134  0.0126  0.0120  0.0116  0.0116
  2.0000  0.0194  0.0166  0.0150  0.0139  0.0131  0.0125  0.0121  0.0121
  3.0000  0.0204  0.0174  0.0157  0.0146  0.0138  0.0132  0.0127  0.0127
  4.0000  0.0215  0.0184  0.0166  0.0155  0.0146  0.0140  0.0135  0.0135
  5.0000  0.0230  0.0196  0.0177  0.0165  0.0157  0.0150  0.0145  0.0145
  6.0000  0.0249  0.0213  0.0193  0.0181  0.0173  0.0168  0.0166  0.0166
  7.0000  0.0277  0.0240  0.0222  0.0214  0.0210  0.0206  0.0198  0.0198
  8.0000  0.0318  0.0285  0.0273  0.0269  0.0256  0.0244  0.0241  0.0241
  9.0000  0.0381  0.0356  0.0350  0.0335  0.0310  0.0299  0.0285  0.0285
 10.0000  0.0481  0.0462  0.0469  0.0409  0.0392  0.0365  0.0372  0.0372
 11.0000  0.0625  0.0612  0.0613  0.0542  0.0486  0.0472  0.0452  0.0452
 12.0000  0.0829  0.0803  0.0822  0.0696  0.0597  0.0593  0.0557  0.0557
 13.0000  0.1371  0.1371  0.1218  0.1227  0.1238  0.0942  0.0557  0.0557
 16.0000  0.1550  0.1550  0.1550  0.1550  0.1550  0.1550  0.1550  0.1550
 23.0000  0.3831  0.3831  0.3831  0.3831  0.3831  0.3831  0.3831  0.3831
 30.0000  0.5620  0.5620  0.5620  0.5620  0.5620  0.5620  0.5620  0.5620
 90.0000  2.0220  2.0220  2.0220  2.0220  2.0220  2.0220  2.0220  2.0220
135.0000  1.1945  1.1945  1.1945  1.1945  1.1945  1.1945  1.1945  1.1945
160.0000  0.3020  0.3020  0.3020  0.3020  0.3020  0.3020  0.3020  0.3020
165.0000  0.2420  0.2420  0.2420  0.2420  0.2420  0.2420  0.2420  0.2420
170.0000  0.1320  0.1320  0.1320  0.1320  0.1320  0.1320  0.1320  0.1320
180.0000  0.0220  0.0220  0.0220  0.0220  0.0220  0.0220  0.0220  0.0220
        0.0583  0.0874  0.1166  0.1457  0.1749  0.2040  0.2332  0.9000
-180.0000  0.0000  0.0000  0.0000  0.0000  0.0000  0.0000  0.0000  0.0000
-170.0000  0.4000  0.4000  0.4000  0.4000  0.4000  0.4000  0.4000  0.4000
-165.0000  0.3000  0.3000  0.3000  0.3000  0.3000  0.3000  0.3000  0.3000
-160.0000  0.3000  0.3000  0.3000  0.3000  0.3000  0.3000  0.3000  0.3000
-135.0000  0.5000  0.5000  0.5000  0.5000  0.5000  0.5000  0.5000  0.5000
-90.0000  0.5000  0.5000  0.5000  0.5000  0.5000  0.5000  0.5000  0.5000
-30.0000  0.1740  0.1740  0.1740  0.1740  0.1740  0.1740  0.1740  0.1740
-23.0000  0.1120  0.1120  0.1120  0.1120  0.1120  0.1120  0.1120  0.1120
-16.0000  0.0730  0.0730  0.0730  0.0730  0.0730  0.0730  0.0730  0.0730
-15.0000  0.0540  0.0540  0.0540  0.0540  0.0540  0.0540  0.0540  0.0540
-14.0000  0.0000  0.0000  0.0000  0.0000  0.0000  0.0000  0.0000  0.0000
-13.0000  0.0000  0.0000  0.0000  0.0000  0.0000  0.0000  0.0000  0.0000
-12.0000  0.0000  0.0000  0.0000  0.0000  0.0000  0.0000  0.0000  0.0000
-11.0000  0.0000  0.0000  0.0000  0.0000  0.0000  0.0000  0.0000  0.0000
-10.0000  0.0000  0.0000  0.0000  0.0000  0.0000  0.0000  0.0000  0.0000
 -9.0000  0.0000  0.0000  0.0000  0.0000  0.0000  0.0000  0.0000  0.0000
 -8.0000  0.0000  0.0000  0.0000  0.0000  0.0000  0.0000  0.0000  0.0000
 -7.0000  0.0000  0.0000  0.0000  0.0000  0.0000  0.0000  0.0000  0.0000
 -6.0000  0.0000  0.0000  0.0000  0.0000  0.0000  0.0000  0.0000  0.0000
 -5.0000 -0.0534 -0.0548 -0.0554 -0.0558 -0.0561 -0.0565 -0.0570 -0.0570
 -4.0000 -0.0505 -0.0526 -0.0540 -0.0545 -0.0549 -0.0554 -0.0559 -0.0559
 -3.0000 -0.0359 -0.0476 -0.0523 -0.0544 -0.0557 -0.0566 -0.0572 -0.0572
 -2.0000 -0.0245 -0.0340 -0.0440 -0.0492 -0.0524 -0.0546 -0.0562 -0.0562
 -1.0000 -0.0433 -0.0446 -0.0339 -0.0393 -0.0451 -0.0492 -0.0523 -0.0523
  0.0000 -0.0402 -0.0441 -0.0458 -0.0470 -0.0417 -0.0406 -0.0442 -0.0442
  1.0000 -0.0401 -0.0434 -0.0446 -0.0453 -0.0459 -0.0465 -0.0470 -0.0470
  2.0000 -0.0402 -0.0436 -0.0450 -0.0460 -0.0469 -0.0476 -0.0482 -0.0482
  3.0000 -0.0401 -0.0436 -0.0452 -0.0464 -0.0474 -0.0482 -0.0490 -0.0490
  4.0000 -0.0397 -0.0432 -0.0450 -0.0463 -0.0474 -0.0483 -0.0491 -0.0491
  5.0000 -0.0389 -0.0425 -0.0444 -0.0458 -0.0469 -0.0478 -0.0485 -0.0485
  6.0000 -0.0374 -0.0411 -0.0431 -0.0444 -0.0453 -0.0459 -0.0462 -0.0462
  7.0000 -0.0350 -0.0384 -0.0401 -0.0411 -0.0418 -0.0423 -0.0429 -0.0429
  8.0000 -0.0314 -0.0350 -0.0374 -0.0390 -0.0394 -0.0397 -0.0398 -0.0398
  9.0000 -0.0289 -0.0336 -0.0358 -0.0361 -0.0369 -0.0366 -0.0363 -0.0363
 10.0000 -0.0261 -0.0298 -0.0312 -0.0317 -0.0317 -0.0318 -0.0314 -0.0314
 11.0000 -0.0198 -0.0224 -0.0219 -0.0246 -0.0241 -0.0245 -0.0222 -0.0222
 12.0000 -0.0158 -0.0155 -0.0169 -0.0140 -0.0150 -0.0127 -0.0119 -0.0119
 13.0000 -0.0508 -0.0524 -0.0302 -0.0313 -0.0323 -0.0299 -0.0119 -0.0119
 16.0000 -0.0730 -0.0730 -0.0730 -0.0730 -0.0730 -0.0730 -0.0730 -0.0730
 23.0000 -0.1120 -0.1120 -0.1120 -0.1120 -0.1120 -0.1120 -0.1120 -0.1120
 30.0000 -0.1740 -0.1740 -0.1740 -0.1740 -0.1740 -0.1740 -0.1740 -0.1740
 90.0000 -0.5000 -0.5000 -0.5000 -0.5000 -0.5000 -0.5000 -0.5000 -0.5000
135.0000 -0.5000 -0.5000 -0.5000 -0.5000 -0.5000 -0.5000 -0.5000 -0.5000
160.0000 -0.3000 -0.3000 -0.3000 -0.3000 -0.3000 -0.3000 -0.3000 -0.3000
165.0000 -0.3000 -0.3000 -0.3000 -0.3000 -0.3000 -0.3000 -0.3000 -0.3000
170.0000 -0.4000 -0.4000 -0.4000 -0.4000 -0.4000 -0.4000 -0.4000 -0.4000
180.0000  0.0000  0.0000  0.0000  0.0000  0.0000  0.0000  0.0000  0.0000
COMMENT #1 
COMMENT #2 
                     AF NAME   846 846 846
        0.0618  0.0928  0.1237  0.1546  0.1855  0.2165  0.2474  0.9000
-180.0000  0.0000  0.0000  0.0000  0.0000  0.0000  0.0000  0.0000  0.0000
-170.0000  0.7452  0.7452  0.7452  0.7452  0.7452  0.7452  0.7452  0.7452
-165.0000  0.6757  0.6757  0.6757  0.6757  0.6757  0.6757  0.6757  0.6757
-160.0000  0.6471  0.6471  0.6471  0.6471  0.6471  0.6471  0.6471  0.6471
-135.0000  1.0000  1.0000  1.0000  1.0000  1.0000  1.0000  1.0000  1.0000
-90.0000 -0.0627 -0.0627 -0.0627 -0.0627 -0.0627 -0.0627 -0.0627 -0.0627
-30.0000 -0.9900 -0.9900 -0.9900 -0.9900 -0.9900 -0.9900 -0.9900 -0.9900
-23.0000 -0.8422 -0.8422 -0.8422 -0.8422 -0.8422 -0.8422 -0.8422 -0.8422
-16.0000 -1.0680 -1.0680 -1.0680 -1.0680 -1.0680 -1.0680 -1.0680 -1.0680
-15.0000 -1.1900 -1.1900 -1.1900 -1.1900 -1.1900 -1.1900 -1.1900 -1.1900
-14.0000 -1.3330 -1.3330 -1.3330 -1.3330 -1.3330 -1.3330 -1.3330 -1.3330
-13.0000 -1.3340 -1.3340 -1.3340 -1.3340 -1.3340 -1.3340 -1.3340 -1.3340
-12.0000 -1.2550 -1.2550 -1.2550 -1.2550 -1.2550 -1.2550 -1.2550 -1.2550
-11.0000 -1.1610 -1.1610 -1.1610 -1.1610 -1.1610 -1.1610 -1.1610 -1.1610
-10.0000 -1.0550 -1.0550 -1.0550 -1.0550 -1.0550 -1.0550 -1.0550 -1.0550
 -9.0000 -0.9495 -0.9495 -0.9495 -0.9495 -0.9495 -0.9495 -0.9495 -0.9495
 -8.0000 -0.8440 -0.8440 -0.8440 -0.8440 -0.8440 -0.8440 -0.8440 -0.8440
 -7.0000 -0.7385 -0.7385 -0.7385 -0.7385 -0.7385 -0.7385 -0.7385 -0.7385
 -6.0000 -0.6330 -0.6330 -0.6330 -0.6330 -0.6330 -0.6330 -0.6330 -0.6330
 -5.0000 -0.3368 -0.3233 -0.3169 -0.3175 -0.3194 -0.3216 -0.3241 -0.3241
 -4.0000 -0.2290 -0.2154 -0.2095 -0.2087 -0.2089 -0.2101 -0.2116 -0.2116
 -3.0000 -0.1565 -0.1205 -0.1066 -0.1006 -0.0973 -0.0956 -0.0949 -0.0949
 -2.0000 -0.0708 -0.0443 -0.0141  0.0016  0.0103  0.0160  0.0200  0.0200
 -1.0000  0.1181  0.1223  0.0680  0.0850  0.1044  0.1178  0.1271  0.1271
  0.0000  0.2020  0.2198  0.2275  0.2343  0.2114  0.2045  0.2179  0.2179
  1.0000  0.3089  0.3253  0.3312  0.3352  0.3389  0.3427  0.3466  0.3466
  2.0000  0.4190  0.4365  0.4443  0.4501  0.4557  0.4613  0.4671  0.4671
  3.0000  0.5285  0.5474  0.5569  0.5644  0.5716  0.5789  0.5865  0.5865
  4.0000  0.6361  0.6568  0.6679  0.6770  0.6858  0.6946  0.7039  0.7039
  5.0000  0.7412  0.7640  0.7769  0.7875  0.7978  0.8081  0.8190  0.8190
  6.0000  0.8423  0.8673  0.8816  0.8932  0.9037  0.9137  0.9238  0.9238
  7.0000  0.9357  0.9613  0.9753  0.9874  0.9996  1.0122  1.0223  1.0223
  8.0000  1.0221  1.0541  1.0752  1.0909  1.1006  1.1110  1.1237  1.1237
  9.0000  1.1181  1.1542  1.1719  1.1835  1.1927  1.2048  1.2145  1.2145
 10.0000  1.1904  1.2169  1.2239  1.2493  1.2666  1.2752  1.2857  1.2857
 11.0000  1.1887  1.2070  1.2080  1.2585  1.2942  1.3027  1.3281  1.3281
 12.0000  1.0560  1.0711  1.0186  1.1380  1.2274  1.2926  1.2714  1.2714
 16.0000  1.0680  1.0680  1.0680  1.0680  1.0680  1.0680  1.0680  1.0680
 23.0000  0.8422  0.8422  0.8422  0.8422  0.8422  0.8422  0.8422  0.8422
 30.0000  0.9900  0.9900  0.9900  0.9900  0.9900  0.9900  0.9900  0.9900
 90.0000  0.0628  0.0628  0.0628  0.0628  0.0628  0.0628  0.0628  0.0628
135.0000 -1.0000 -1.0000 -1.0000 -1.0000 -1.0000 -1.0000 -1.0000 -1.0000
160.0000 -0.6471 -0.6471 -0.6471 -0.6471 -0.6471 -0.6471 -0.6471 -0.6471
165.0000 -0.6757 -0.6757 -0.6757 -0.6757 -0.6757 -0.6757 -0.6757 -0.6757
170.0000 -0.7452 -0.7452 -0.7452 -0.7452 -0.7452 -0.7452 -0.7452 -0.7452
180.0000  0.0000  0.0000  0.0000  0.0000  0.0000  0.0000  0.0000  0.0000
        0.0618  0.0928  0.1237  0.1546  0.1855  0.2165  0.2474  0.9000
-180.0000  0.0220  0.0220  0.0220  0.0220  0.0220  0.0220  0.0220  0.0220
-170.0000  0.1320  0.1320  0.1320  0.1320  0.1320  0.1320  0.1320  0.1320
-165.0000  0.2420  0.2420  0.2420  0.2420  0.2420  0.2420  0.2420  0.2420
-160.0000  0.3020  0.3020  0.3020  0.3020  0.3020  0.3020  0.3020  0.3020
-135.0000  1.1945  1.1945  1.1945  1.1945  1.1945  1.1945  1.1945  1.1945
-90.0000  2.0220  2.0220  2.0220  2.0220  2.0220  2.0220  2.0220  2.0220
-30.0000  0.5620  0.5620  0.5620  0.5620  0.5620  0.5620  0.5620  0.5620
-23.0000  0.3831  0.3831  0.3831  0.3831  0.3831  0.3831  0.3831  0.3831
-16.0000  0.1550  0.1550  0.1550  0.1550  0.1550  0.1550  0.1550  0.1550
-15.0000  0.1020  0.1020  0.1020  0.1020  0.1020  0.1020  0.1020  0.1020
-14.0000  0.0380  0.0380  0.0380  0.0380  0.0380  0.0380  0.0380  0.0380
-13.0000  0.0264  0.0264  0.0264  0.0264  0.0264  0.0264  0.0264  0.0264
-12.0000  0.0220  0.0220  0.0220  0.0220  0.0220  0.0220  0.0220  0.0220
-11.0000  0.0196  0.0196  0.0196  0.0196  0.0196  0.0196  0.0196  0.0196
-10.0000  0.0174  0.0174  0.0174  0.0174  0.0174  0.0174  0.0174  0.0174
 -9.0000  0.0154  0.0154  0.0154  0.0154  0.0154  0.0154  0.0154  0.0154
 -8.0000  0.0138  0.0138  0.0138  0.0138  0.0138  0.0138  0.0138  0.0138
 -7.0000  0.0122  0.0122  0.0122  0.0122  0.0122  0.0122  0.0122  0.0122
 -6.0000  0.0110  0.0110  0.0110  0.0110  0.0110  0.0110  0.0110  0.0110
 -5.0000  0.0307  0.0264  0.0244  0.0224  0.0216  0.0206  0.0206  0.0206
 -4.0000  0.0237  0.0208  0.0193  0.0183  0.0175  0.0167  0.0163  0.0163
 -3.0000  0.0195  0.0163  0.0147  0.0138  0.0133  0.0130  0.0128  0.0128
 -2.0000  0.0192  0.0161  0.0143  0.0132  0.0125  0.0120  0.0116  0.0116
 -1.0000  0.0181  0.0157  0.0140  0.0131  0.0124  0.0118  0.0114  0.0114
  0.0000  0.0179  0.0153  0.0138  0.0129  0.0122  0.0117  0.0114  0.0114
  1.0000  0.0183  0.0156  0.0141  0.0131  0.0124  0.0118  0.0114  0.0114
  2.0000  0.0190  0.0162  0.0147  0.0137  0.0129  0.0123  0.0119  0.0119
  3.0000  0.0199  0.0170  0.0154  0.0143  0.0135  0.0130  0.0125  0.0125
  4.0000  0.0210  0.0180  0.0163  0.0152  0.0144  0.0137  0.0133  0.0133
  5.0000  0.0225  0.0192  0.0174  0.0162  0.0154  0.0147  0.0143  0.0143
  6.0000  0.0244  0.0209  0.0190  0.0179  0.0172  0.0168  0.0167  0.0167
  7.0000  0.0272  0.0238  0.0222  0.0215  0.0213  0.0203  0.0203  0.0203
  8.0000  0.0315  0.0286  0.0277  0.0272  0.0252  0.0248  0.0238  0.0238
  9.0000  0.0384  0.0364  0.0361  0.0325  0.0313  0.0294  0.0300  0.0300
 10.0000  0.0493  0.0481  0.0466  0.0423  0.0384  0.0379  0.0362  0.0362
 11.0000  0.0650  0.0645  0.0611  0.0537  0.0496  0.0466  0.0435  0.0435
 12.0000  0.0894  0.0883  0.0978  0.0747  0.0631  0.0553  0.0570  0.0570
 16.0000  0.1550  0.1550  0.1550  0.1550  0.1550  0.1550  0.1550  0.1550
 23.0000  0.3831  0.3831  0.3831  0.3831  0.3831  0.3831  0.3831  0.3831
 30.0000  0.5620  0.5620  0.5620  0.5620  0.5620  0.5620  0.5620  0.5620
 90.0000  2.0220  2.0220  2.0220  2.0220  2.0220  2.0220  2.0220  2.0220
135.0000  1.1945  1.1945  1.1945  1.1945  1.1945  1.1945  1.1945  1.1945
160.0000  0.3020  0.3020  0.3020  0.3020  0.3020  0.3020  0.3020  0.3020
165.0000  0.2420  0.2420  0.2420  0.2420  0.2420  0.2420  0.2420  0.2420
170.0000  0.1320  0.1320  0.1320  0.1320  0.1320  0.1320  0.1320  0.1320
180.0000  0.0220  0.0220  0.0220  0.0220  0.0220  0.0220  0.0220  0.0220
        0.0618  0.0928  0.1237  0.1546  0.1855  0.2165  0.2474  0.9000
-180.0000  0.0000  0.0000  0.0000  0.0000  0.0000  0.0000  0.0000  0.0000
-170.0000  0.4000  0.4000  0.4000  0.4000  0.4000  0.4000  0.4000  0.4000
-165.0000  0.3000  0.3000  0.3000  0.3000  0.3000  0.3000  0.3000  0.3000
-160.0000  0.3000  0.3000  0.3000  0.3000  0.3000  0.3000  0.3000  0.3000
-135.0000  0.5000  0.5000  0.5000  0.5000  0.5000  0.5000  0.5000  0.5000
-90.0000  0.5000  0.5000  0.5000  0.5000  0.5000  0.5000  0.5000  0.5000
-30.0000  0.1740  0.1740  0.1740  0.1740  0.1740  0.1740  0.1740  0.1740
-23.0000  0.1120  0.1120  0.1120  0.1120  0.1120  0.1120  0.1120  0.1120
-16.0000  0.0730  0.0730  0.0730  0.0730  0.0730  0.0730  0.0730  0.0730
-15.0000  0.0540  0.0540  0.0540  0.0540  0.0540  0.0540  0.0540  0.0540
-14.0000  0.0000  0.0000  0.0000  0.0000  0.0000  0.0000  0.0000  0.0000
-13.0000  0.0000  0.0000  0.0000  0.0000  0.0000  0.0000  0.0000  0.0000
-12.0000  0.0000  0.0000  0.0000  0.0000  0.0000  0.0000  0.0000  0.0000
-11.0000  0.0000  0.0000  0.0000  0.0000  0.0000  0.0000  0.0000  0.0000
-10.0000  0.0000  0.0000  0.0000  0.0000  0.0000  0.0000  0.0000  0.0000
 -9.0000  0.0000  0.0000  0.0000  0.0000  0.0000  0.0000  0.0000  0.0000
 -8.0000  0.0000  0.0000  0.0000  0.0000  0.0000  0.0000  0.0000  0.0000
 -7.0000  0.0000  0.0000  0.0000  0.0000  0.0000  0.0000  0.0000  0.0000
 -6.0000  0.0000  0.0000  0.0000  0.0000  0.0000  0.0000  0.0000  0.0000
 -5.0000 -0.0537 -0.0547 -0.0555 -0.0557 -0.0562 -0.0566 -0.0573 -0.0573
 -4.0000 -0.0508 -0.0529 -0.0540 -0.0545 -0.0549 -0.0555 -0.0562 -0.0562
 -3.0000 -0.0383 -0.0489 -0.0530 -0.0549 -0.0560 -0.0568 -0.0573 -0.0573
 -2.0000 -0.0238 -0.0361 -0.0454 -0.0504 -0.0533 -0.0553 -0.0568 -0.0568
 -1.0000 -0.0432 -0.0434 -0.0348 -0.0407 -0.0464 -0.0504 -0.0531 -0.0531
  0.0000 -0.0407 -0.0440 -0.0454 -0.0466 -0.0423 -0.0417 -0.0454 -0.0454
  1.0000 -0.0408 -0.0438 -0.0450 -0.0457 -0.0464 -0.0469 -0.0474 -0.0474
  2.0000 -0.0410 -0.0441 -0.0455 -0.0465 -0.0474 -0.0482 -0.0489 -0.0489
  3.0000 -0.0409 -0.0441 -0.0457 -0.0469 -0.0479 -0.0487 -0.0495 -0.0495
  4.0000 -0.0405 -0.0438 -0.0455 -0.0468 -0.0479 -0.0488 -0.0496 -0.0496
  5.0000 -0.0397 -0.0430 -0.0449 -0.0463 -0.0473 -0.0482 -0.0489 -0.0489
  6.0000 -0.0382 -0.0417 -0.0435 -0.0448 -0.0456 -0.0461 -0.0463 -0.0463
  7.0000 -0.0357 -0.0388 -0.0404 -0.0413 -0.0420 -0.0427 -0.0429 -0.0429
  8.0000 -0.0321 -0.0357 -0.0380 -0.0393 -0.0396 -0.0399 -0.0398 -0.0398
  9.0000 -0.0300 -0.0341 -0.0358 -0.0364 -0.0366 -0.0365 -0.0362 -0.0362
 10.0000 -0.0266 -0.0293 -0.0294 -0.0315 -0.0318 -0.0316 -0.0301 -0.0301
 11.0000 -0.0196 -0.0213 -0.0205 -0.0224 -0.0244 -0.0226 -0.0224 -0.0224
 12.0000 -0.0207 -0.0211 -0.0310 -0.0172 -0.0133 -0.0130 -0.0117 -0.0117
 16.0000 -0.0730 -0.0730 -0.0730 -0.0730 -0.0730 -0.0730 -0.0730 -0.0730
 23.0000 -0.1120 -0.1120 -0.1120 -0.1120 -0.1120 -0.1120 -0.1120 -0.1120
 30.0000 -0.1740 -0.1740 -0.1740 -0.1740 -0.1740 -0.1740 -0.1740 -0.1740
 90.0000 -0.5000 -0.5000 -0.5000 -0.5000 -0.5000 -0.5000 -0.5000 -0.5000
135.0000 -0.5000 -0.5000 -0.5000 -0.5000 -0.5000 -0.5000 -0.5000 -0.5000
160.0000 -0.3000 -0.3000 -0.3000 -0.3000 -0.3000 -0.3000 -0.3000 -0.3000
165.0000 -0.3000 -0.3000 -0.3000 -0.3000 -0.3000 -0.3000 -0.3000 -0.3000
170.0000 -0.4000 -0.4000 -0.4000 -0.4000 -0.4000 -0.4000 -0.4000 -0.4000
180.0000  0.0000  0.0000  0.0000  0.0000  0.0000  0.0000  0.0000  0.0000
COMMENT #1 
COMMENT #2 
                     AF NAME   846 846 846
        0.0654  0.0981  0.1308  0.1635  0.1962  0.2289  0.2616  0.9000
-180.0000  0.0000  0.0000  0.0000  0.0000  0.0000  0.0000  0.0000  0.0000
-170.0000  0.7452  0.7452  0.7452  0.7452  0.7452  0.7452  0.7452  0.7452
-165.0000  0.6757  0.6757  0.6757  0.6757  0.6757  0.6757  0.6757  0.6757
-160.0000  0.6471  0.6471  0.6471  0.6471  0.6471  0.6471  0.6471  0.6471
-135.0000  1.0000  1.0000  1.0000  1.0000  1.0000  1.0000  1.0000  1.0000
-90.0000 -0.0627 -0.0627 -0.0627 -0.0627 -0.0627 -0.0627 -0.0627 -0.0627
-30.0000 -0.9900 -0.9900 -0.9900 -0.9900 -0.9900 -0.9900 -0.9900 -0.9900
-23.0000 -0.8422 -0.8422 -0.8422 -0.8422 -0.8422 -0.8422 -0.8422 -0.8422
-16.0000 -1.0680 -1.0680 -1.0680 -1.0680 -1.0680 -1.0680 -1.0680 -1.0680
-15.0000 -1.1900 -1.1900 -1.1900 -1.1900 -1.1900 -1.1900 -1.1900 -1.1900
-14.0000 -1.3330 -1.3330 -1.3330 -1.3330 -1.3330 -1.3330 -1.3330 -1.3330
-13.0000 -1.3340 -1.3340 -1.3340 -1.3340 -1.3340 -1.3340 -1.3340 -1.3340
-12.0000 -1.2550 -1.2550 -1.2550 -1.2550 -1.2550 -1.2550 -1.2550 -1.2550
-11.0000 -1.1610 -1.1610 -1.1610 -1.1610 -1.1610 -1.1610 -1.1610 -1.1610
-10.0000 -1.0550 -1.0550 -1.0550 -1.0550 -1.0550 -1.0550 -1.0550 -1.0550
 -9.0000 -0.9495 -0.9495 -0.9495 -0.9495 -0.9495 -0.9495 -0.9495 -0.9495
 -8.0000 -0.8440 -0.8440 -0.8440 -0.8440 -0.8440 -0.8440 -0.8440 -0.8440
 -7.0000 -0.7385 -0.7385 -0.7385 -0.7385 -0.7385 -0.7385 -0.7385 -0.7385
 -6.0000 -0.6330 -0.6330 -0.6330 -0.6330 -0.6330 -0.6330 -0.6330 -0.6330
 -5.0000 -0.3343 -0.3227 -0.3187 -0.3185 -0.3215 -0.3226 -0.3274 -0.3274
 -4.0000 -0.2273 -0.2138 -0.2101 -0.2097 -0.2104 -0.2115 -0.2136 -0.2136
 -3.0000 -0.1515 -0.1178 -0.1056 -0.1004 -0.0975 -0.0961 -0.0959 -0.0959
 -2.0000 -0.0654 -0.0407 -0.0121  0.0026  0.0110  0.0164  0.0199  0.0199
 -1.0000  0.1140  0.1285  0.0723  0.0870  0.1059  0.1189  0.1281  0.1281
  0.0000  0.2040  0.2187  0.2241  0.2289  0.2194  0.2087  0.2199  0.2199
  1.0000  0.3128  0.3274  0.3331  0.3373  0.3413  0.3454  0.3497  0.3497
  2.0000  0.4234  0.4393  0.4468  0.4529  0.4588  0.4648  0.4712  0.4712
  3.0000  0.5331  0.5504  0.5597  0.5674  0.5749  0.5827  0.5910  0.5910
  4.0000  0.6410  0.6601  0.6710  0.6803  0.6895  0.6989  0.7089  0.7089
  5.0000  0.7464  0.7676  0.7803  0.7911  0.8018  0.8129  0.8245  0.8245
  6.0000  0.8477  0.8710  0.8849  0.8963  0.9069  0.9172  0.9296  0.9296
  7.0000  0.9408  0.9643  0.9786  0.9917  1.0046  1.0151  1.0300  1.0300
  8.0000  1.0296  1.0608  1.0811  1.0938  1.1038  1.1162  1.1276  1.1276
  9.0000  1.1254  1.1559  1.1708  1.1838  1.1964  1.2065  1.2195  1.2195
 10.0000  1.1822  1.2023  1.2364  1.2500  1.2623  1.2756  1.2908  1.2908
 11.0000  1.1467  1.1555  1.2196  1.2699  1.2816  1.3006  1.2949  1.2949
 12.0000  0.9383  0.9295  1.0471  1.1838  1.0201  1.2378  1.2246  1.2246
 16.0000  1.0680  1.0680  1.0680  1.0680  1.0680  1.0680  1.0680  1.0680
 23.0000  0.8422  0.8422  0.8422  0.8422  0.8422  0.8422  0.8422  0.8422
 30.0000  0.9900  0.9900  0.9900  0.9900  0.9900  0.9900  0.9900  0.9900
 90.0000  0.0628  0.0628  0.0628  0.0628  0.0628  0.0628  0.0628  0.0628
135.0000 -1.0000 -1.0000 -1.0000 -1.0000 -1.0000 -1.0000 -1.0000 -1.0000
160.0000 -0.6471 -0.6471 -0.6471 -0.6471 -0.6471 -0.6471 -0.6471 -0.6471
165.0000 -0.6757 -0.6757 -0.6757 -0.6757 -0.6757 -0.6757 -0.6757 -0.6757
170.0000 -0.7452 -0.7452 -0.7452 -0.7452 -0.7452 -0.7452 -0.7452 -0.7452
180.0000  0.0000  0.0000  0.0000  0.0000  0.0000  0.0000  0.0000  0.0000
        0.0654  0.0981  0.1308  0.1635  0.1962  0.2289  0.2616  0.9000
-180.0000  0.0220  0.0220  0.0220  0.0220  0.0220  0.0220  0.0220  0.0220
-170.0000  0.1320  0.1320  0.1320  0.1320  0.1320  0.1320  0.1320  0.1320
-165.0000  0.2420  0.2420  0.2420  0.2420  0.2420  0.2420  0.2420  0.2420
-160.0000  0.3020  0.3020  0.3020  0.3020  0.3020  0.3020  0.3020  0.3020
-135.0000  1.1945  1.1945  1.1945  1.1945  1.1945  1.1945  1.1945  1.1945
-90.0000  2.0220  2.0220  2.0220  2.0220  2.0220  2.0220  2.0220  2.0220
-30.0000  0.5620  0.5620  0.5620  0.5620  0.5620  0.5620  0.5620  0.5620
-23.0000  0.3831  0.3831  0.3831  0.3831  0.3831  0.3831  0.3831  0.3831
-16.0000  0.1550  0.1550  0.1550  0.1550  0.1550  0.1550  0.1550  0.1550
-15.0000  0.1020  0.1020  0.1020  0.1020  0.1020  0.1020  0.1020  0.1020
-14.0000  0.0380  0.0380  0.0380  0.0380  0.0380  0.0380  0.0380  0.0380
-13.0000  0.0264  0.0264  0.0264  0.0264  0.0264  0.0264  0.0264  0.0264
-12.0000  0.0220  0.0220  0.0220  0.0220  0.0220  0.0220  0.0220  0.0220
-11.0000  0.0196  0.0196  0.0196  0.0196  0.0196  0.0196  0.0196  0.0196
-10.0000  0.0174  0.0174  0.0174  0.0174  0.0174  0.0174  0.0174  0.0174
 -9.0000  0.0154  0.0154  0.0154  0.0154  0.0154  0.0154  0.0154  0.0154
 -8.0000  0.0138  0.0138  0.0138  0.0138  0.0138  0.0138  0.0138  0.0138
 -7.0000  0.0122  0.0122  0.0122  0.0122  0.0122  0.0122  0.0122  0.0122
 -6.0000  0.0110  0.0110  0.0110  0.0110  0.0110  0.0110  0.0110  0.0110
 -5.0000  0.0309  0.0262  0.0240  0.0230  0.0215  0.0217  0.0206  0.0206
 -4.0000  0.0234  0.0207  0.0191  0.0179  0.0171  0.0167  0.0161  0.0161
 -3.0000  0.0190  0.0159  0.0144  0.0136  0.0132  0.0129  0.0127  0.0127
 -2.0000  0.0186  0.0156  0.0140  0.0130  0.0123  0.0118  0.0115  0.0115
 -1.0000  0.0176  0.0152  0.0137  0.0128  0.0121  0.0116  0.0112  0.0112
  0.0000  0.0175  0.0149  0.0135  0.0126  0.0119  0.0114  0.0111  0.0111
  1.0000  0.0179  0.0153  0.0139  0.0129  0.0122  0.0116  0.0112  0.0112
  2.0000  0.0186  0.0159  0.0144  0.0134  0.0127  0.0121  0.0117  0.0117
  3.0000  0.0195  0.0167  0.0151  0.0141  0.0134  0.0128  0.0123  0.0123
  4.0000  0.0206  0.0177  0.0160  0.0149  0.0141  0.0135  0.0131  0.0131
  5.0000  0.0220  0.0189  0.0171  0.0160  0.0152  0.0146  0.0141  0.0141
  6.0000  0.0239  0.0206  0.0188  0.0178  0.0172  0.0170  0.0167  0.0167
  7.0000  0.0269  0.0238  0.0224  0.0218  0.0211  0.0209  0.0200  0.0200
  8.0000  0.0317  0.0291  0.0284  0.0269  0.0259  0.0244  0.0249  0.0249
  9.0000  0.0395  0.0378  0.0363  0.0337  0.0312  0.0312  0.0299  0.0299
 10.0000  0.0519  0.0509  0.0456  0.0416  0.0398  0.0377  0.0363  0.0363
 11.0000  0.0694  0.0691  0.0610  0.0549  0.0496  0.0483  0.0464  0.0464
 12.0000  0.1159  0.1205  0.0919  0.0699  0.0585  0.0609  0.0621  0.0621
 16.0000  0.1550  0.1550  0.1550  0.1550  0.1550  0.1550  0.1550  0.1550
 23.0000  0.3831  0.3831  0.3831  0.3831  0.3831  0.3831  0.3831  0.3831
 30.0000  0.5620  0.5620  0.5620  0.5620  0.5620  0.5620  0.5620  0.5620
 90.0000  2.0220  2.0220  2.0220  2.0220  2.0220  2.0220  2.0220  2.0220
135.0000  1.1945  1.1945  1.1945  1.1945  1.1945  1.1945  1.1945  1.1945
160.0000  0.3020  0.3020  0.3020  0.3020  0.3020  0.3020  0.3020  0.3020
165.0000  0.2420  0.2420  0.2420  0.2420  0.2420  0.2420  0.2420  0.2420
170.0000  0.1320  0.1320  0.1320  0.1320  0.1320  0.1320  0.1320  0.1320
180.0000  0.0220  0.0220  0.0220  0.0220  0.0220  0.0220  0.0220  0.0220
        0.0654  0.0981  0.1308  0.1635  0.1962  0.2289  0.2616  0.9000
-180.0000  0.0000  0.0000  0.0000  0.0000  0.0000  0.0000  0.0000  0.0000
-170.0000  0.4000  0.4000  0.4000  0.4000  0.4000  0.4000  0.4000  0.4000
-165.0000  0.3000  0.3000  0.3000  0.3000  0.3000  0.3000  0.3000  0.3000
-160.0000  0.3000  0.3000  0.3000  0.3000  0.3000  0.3000  0.3000  0.3000
-135.0000  0.5000  0.5000  0.5000  0.5000  0.5000  0.5000  0.5000  0.5000
-90.0000  0.5000  0.5000  0.5000  0.5000  0.5000  0.5000  0.5000  0.5000
-30.0000  0.1740  0.1740  0.1740  0.1740  0.1740  0.1740  0.1740  0.1740
-23.0000  0.1120  0.1120  0.1120  0.1120  0.1120  0.1120  0.1120  0.1120
-16.0000  0.0730  0.0730  0.0730  0.0730  0.0730  0.0730  0.0730  0.0730
-15.0000  0.0540  0.0540  0.0540  0.0540  0.0540  0.0540  0.0540  0.0540
-14.0000  0.0000  0.0000  0.0000  0.0000  0.0000  0.0000  0.0000  0.0000
-13.0000  0.0000  0.0000  0.0000  0.0000  0.0000  0.0000  0.0000  0.0000
-12.0000  0.0000  0.0000  0.0000  0.0000  0.0000  0.0000  0.0000  0.0000
-11.0000  0.0000  0.0000  0.0000  0.0000  0.0000  0.0000  0.0000  0.0000
-10.0000  0.0000  0.0000  0.0000  0.0000  0.0000  0.0000  0.0000  0.0000
 -9.0000  0.0000  0.0000  0.0000  0.0000  0.0000  0.0000  0.0000  0.0000
 -8.0000  0.0000  0.0000  0.0000  0.0000  0.0000  0.0000  0.0000  0.0000
 -7.0000  0.0000  0.0000  0.0000  0.0000  0.0000  0.0000  0.0000  0.0000
 -6.0000  0.0000  0.0000  0.0000  0.0000  0.0000  0.0000  0.0000  0.0000
 -5.0000 -0.0530 -0.0540 -0.0547 -0.0549 -0.0554 -0.0558 -0.0566 -0.0566
 -4.0000 -0.0504 -0.0523 -0.0532 -0.0536 -0.0541 -0.0547 -0.0554 -0.0554
 -3.0000 -0.0390 -0.0489 -0.0524 -0.0542 -0.0552 -0.0559 -0.0565 -0.0565
 -2.0000 -0.0248 -0.0364 -0.0452 -0.0499 -0.0528 -0.0547 -0.0562 -0.0562
 -1.0000 -0.0423 -0.0444 -0.0352 -0.0405 -0.0461 -0.0499 -0.0526 -0.0526
  0.0000 -0.0406 -0.0434 -0.0444 -0.0453 -0.0435 -0.0419 -0.0450 -0.0450
  1.0000 -0.0409 -0.0436 -0.0447 -0.0455 -0.0462 -0.0468 -0.0474 -0.0474
  2.0000 -0.0411 -0.0439 -0.0453 -0.0463 -0.0472 -0.0480 -0.0487 -0.0487
  3.0000 -0.0411 -0.0439 -0.0454 -0.0466 -0.0476 -0.0485 -0.0493 -0.0493
  4.0000 -0.0406 -0.0436 -0.0452 -0.0465 -0.0476 -0.0485 -0.0492 -0.0492
  5.0000 -0.0398 -0.0429 -0.0446 -0.0459 -0.0470 -0.0478 -0.0485 -0.0485
  6.0000 -0.0383 -0.0414 -0.0432 -0.0443 -0.0449 -0.0452 -0.0456 -0.0456
  7.0000 -0.0357 -0.0384 -0.0398 -0.0408 -0.0415 -0.0420 -0.0423 -0.0423
  8.0000 -0.0322 -0.0357 -0.0377 -0.0386 -0.0391 -0.0391 -0.0390 -0.0390
  9.0000 -0.0301 -0.0334 -0.0345 -0.0357 -0.0358 -0.0357 -0.0347 -0.0347
 10.0000 -0.0255 -0.0274 -0.0301 -0.0303 -0.0306 -0.0298 -0.0290 -0.0290
 11.0000 -0.0180 -0.0188 -0.0209 -0.0235 -0.0218 -0.0221 -0.0181 -0.0181
 12.0000 -0.0427 -0.0482 -0.0274 -0.0142 -0.0014 -0.0123 -0.0132 -0.0132
 16.0000 -0.0730 -0.0730 -0.0730 -0.0730 -0.0730 -0.0730 -0.0730 -0.0730
 23.0000 -0.1120 -0.1120 -0.1120 -0.1120 -0.1120 -0.1120 -0.1120 -0.1120
 30.0000 -0.1740 -0.1740 -0.1740 -0.1740 -0.1740 -0.1740 -0.1740 -0.1740
 90.0000 -0.5000 -0.5000 -0.5000 -0.5000 -0.5000 -0.5000 -0.5000 -0.5000
135.0000 -0.5000 -0.5000 -0.5000 -0.5000 -0.5000 -0.5000 -0.5000 -0.5000
160.0000 -0.3000 -0.3000 -0.3000 -0.3000 -0.3000 -0.3000 -0.3000 -0.3000
165.0000 -0.3000 -0.3000 -0.3000 -0.3000 -0.3000 -0.3000 -0.3000 -0.3000
170.0000 -0.4000 -0.4000 -0.4000 -0.4000 -0.4000 -0.4000 -0.4000 -0.4000
180.0000  0.0000  0.0000  0.0000  0.0000  0.0000  0.0000  0.0000  0.0000
COMMENT #1 
COMMENT #2 
                     AF NAME   846 846 846
        0.0690  0.1034  0.1379  0.1724  0.2069  0.2413  0.2758  0.9000
-180.0000  0.0000  0.0000  0.0000  0.0000  0.0000  0.0000  0.0000  0.0000
-170.0000  0.7452  0.7452  0.7452  0.7452  0.7452  0.7452  0.7452  0.7452
-165.0000  0.6757  0.6757  0.6757  0.6757  0.6757  0.6757  0.6757  0.6757
-160.0000  0.6471  0.6471  0.6471  0.6471  0.6471  0.6471  0.6471  0.6471
-135.0000  1.0000  1.0000  1.0000  1.0000  1.0000  1.0000  1.0000  1.0000
-90.0000 -0.0627 -0.0627 -0.0627 -0.0627 -0.0627 -0.0627 -0.0627 -0.0627
-30.0000 -0.9900 -0.9900 -0.9900 -0.9900 -0.9900 -0.9900 -0.9900 -0.9900
-23.0000 -0.8422 -0.8422 -0.8422 -0.8422 -0.8422 -0.8422 -0.8422 -0.8422
-16.0000 -1.0680 -1.0680 -1.0680 -1.0680 -1.0680 -1.0680 -1.0680 -1.0680
-15.0000 -1.1900 -1.1900 -1.1900 -1.1900 -1.1900 -1.1900 -1.1900 -1.1900
-14.0000 -1.3330 -1.3330 -1.3330 -1.3330 -1.3330 -1.3330 -1.3330 -1.3330
-13.0000 -1.3340 -1.3340 -1.3340 -1.3340 -1.3340 -1.3340 -1.3340 -1.3340
-12.0000 -1.2550 -1.2550 -1.2550 -1.2550 -1.2550 -1.2550 -1.2550 -1.2550
-11.0000 -1.1610 -1.1610 -1.1610 -1.1610 -1.1610 -1.1610 -1.1610 -1.1610
-10.0000 -1.0550 -1.0550 -1.0550 -1.0550 -1.0550 -1.0550 -1.0550 -1.0550
 -9.0000 -0.9495 -0.9495 -0.9495 -0.9495 -0.9495 -0.9495 -0.9495 -0.9495
 -8.0000 -0.8440 -0.8440 -0.8440 -0.8440 -0.8440 -0.8440 -0.8440 -0.8440
 -7.0000 -0.7385 -0.7385 -0.7385 -0.7385 -0.7385 -0.7385 -0.7385 -0.7385
 -6.0000 -0.6330 -0.6330 -0.6330 -0.6330 -0.6330 -0.6330 -0.6330 -0.6330
 -5.0000 -0.3360 -0.3238 -0.3207 -0.3214 -0.3240 -0.3262 -0.3310 -0.3310
 -4.0000 -0.2265 -0.2144 -0.2108 -0.2109 -0.2115 -0.2137 -0.2154 -0.2154
 -3.0000 -0.1477 -0.1162 -0.1051 -0.1001 -0.0976 -0.0968 -0.0969 -0.0969
 -2.0000 -0.0636 -0.0383 -0.0106  0.0036  0.0118  0.0169  0.0202  0.0202
 -1.0000  0.1081  0.1301  0.0755  0.0880  0.1067  0.1199  0.1292  0.1292
  0.0000  0.2040  0.2169  0.2211  0.2245  0.2254  0.2125  0.2211  0.2211
  1.0000  0.3144  0.3279  0.3336  0.3381  0.3425  0.3470  0.3517  0.3517
  2.0000  0.4255  0.4403  0.4479  0.4543  0.4606  0.4672  0.4741  0.4741
  3.0000  0.5355  0.5519  0.5611  0.5692  0.5772  0.5855  0.5945  0.5945
  4.0000  0.6438  0.6619  0.6728  0.6825  0.6922  0.7023  0.7131  0.7131
  5.0000  0.7496  0.7697  0.7824  0.7937  0.8049  0.8167  0.8290  0.8290
  6.0000  0.8511  0.8730  0.8865  0.8978  0.9085  0.9204  0.9320  0.9320
  7.0000  0.9438  0.9661  0.9814  0.9959  1.0069  1.0210  1.0352  1.0352
  8.0000  1.0364  1.0666  1.0855  1.0957  1.1076  1.1194  1.1348  1.1348
  9.0000  1.1288  1.1536  1.1743  1.1849  1.1961  1.2100  1.2243  1.2243
 10.0000  1.1661  1.1791  1.2160  1.2430  1.2623  1.2704  1.2793  1.2793
 11.0000  1.0903  1.0871  1.1689  1.2378  1.2738  1.2702  1.2848  1.2848
 12.0000  0.9067  0.9015  0.6714  0.7298  1.1884  0.7568  1.2310  1.2310
 16.0000  1.0680  1.0680  1.0680  1.0680  1.0680  1.0680  1.0680  1.0680
 23.0000  0.8422  0.8422  0.8422  0.8422  0.8422  0.8422  0.8422  0.8422
 30.0000  0.9900  0.9900  0.9900  0.9900  0.9900  0.9900  0.9900  0.9900
 90.0000  0.0628  0.0628  0.0628  0.0628  0.0628  0.0628  0.0628  0.0628
135.0000 -1.0000 -1.0000 -1.0000 -1.0000 -1.0000 -1.0000 -1.0000 -1.0000
160.0000 -0.6471 -0.6471 -0.6471 -0.6471 -0.6471 -0.6471 -0.6471 -0.6471
165.0000 -0.6757 -0.6757 -0.6757 -0.6757 -0.6757 -0.6757 -0.6757 -0.6757
170.0000 -0.7452 -0.7452 -0.7452 -0.7452 -0.7452 -0.7452 -0.7452 -0.7452
180.0000  0.0000  0.0000  0.0000  0.0000  0.0000  0.0000  0.0000  0.0000
        0.0690  0.1034  0.1379  0.1724  0.2069  0.2413  0.2758  0.9000
-180.0000  0.0220  0.0220  0.0220  0.0220  0.0220  0.0220  0.0220  0.0220
-170.0000  0.1320  0.1320  0.1320  0.1320  0.1320  0.1320  0.1320  0.1320
-165.0000  0.2420  0.2420  0.2420  0.2420  0.2420  0.2420  0.2420  0.2420
-160.0000  0.3020  0.3020  0.3020  0.3020  0.3020  0.3020  0.3020  0.3020
-135.0000  1.1945  1.1945  1.1945  1.1945  1.1945  1.1945  1.1945  1.1945
-90.0000  2.0220  2.0220  2.0220  2.0220  2.0220  2.0220  2.0220  2.0220
-30.0000  0.5620  0.5620  0.5620  0.5620  0.5620  0.5620  0.5620  0.5620
-23.0000  0.3831  0.3831  0.3831  0.3831  0.3831  0.3831  0.3831  0.3831
-16.0000  0.1550  0.1550  0.1550  0.1550  0.1550  0.1550  0.1550  0.1550
-15.0000  0.1020  0.1020  0.1020  0.1020  0.1020  0.1020  0.1020  0.1020
-14.0000  0.0380  0.0380  0.0380  0.0380  0.0380  0.0380  0.0380  0.0380
-13.0000  0.0264  0.0264  0.0264  0.0264  0.0264  0.0264  0.0264  0.0264
-12.0000  0.0220  0.0220  0.0220  0.0220  0.0220  0.0220  0.0220  0.0220
-11.0000  0.0196  0.0196  0.0196  0.0196  0.0196  0.0196  0.0196  0.0196
-10.0000  0.0174  0.0174  0.0174  0.0174  0.0174  0.0174  0.0174  0.0174
 -9.0000  0.0154  0.0154  0.0154  0.0154  0.0154  0.0154  0.0154  0.0154
 -8.0000  0.0138  0.0138  0.0138  0.0138  0.0138  0.0138  0.0138  0.0138
 -7.0000  0.0122  0.0122  0.0122  0.0122  0.0122  0.0122  0.0122  0.0122
 -6.0000  0.0110  0.0110  0.0110  0.0110  0.0110  0.0110  0.0110  0.0110
 -5.0000  0.0305  0.0261  0.0240  0.0230  0.0216  0.0217  0.0210  0.0210
 -4.0000  0.0234  0.0206  0.0192  0.0179  0.0174  0.0166  0.0165  0.0165
 -3.0000  0.0185  0.0156  0.0142  0.0135  0.0131  0.0129  0.0128  0.0128
 -2.0000  0.0181  0.0152  0.0137  0.0127  0.0121  0.0117  0.0114  0.0114
 -1.0000  0.0171  0.0148  0.0133  0.0125  0.0119  0.0114  0.0110  0.0110
  0.0000  0.0171  0.0146  0.0132  0.0123  0.0117  0.0112  0.0109  0.0109
  1.0000  0.0176  0.0150  0.0136  0.0127  0.0120  0.0114  0.0110  0.0110
  2.0000  0.0182  0.0157  0.0142  0.0132  0.0125  0.0120  0.0115  0.0115
  3.0000  0.0191  0.0164  0.0149  0.0139  0.0132  0.0126  0.0121  0.0121
  4.0000  0.0202  0.0174  0.0158  0.0147  0.0140  0.0134  0.0129  0.0129
  5.0000  0.0216  0.0186  0.0169  0.0158  0.0150  0.0144  0.0141  0.0141
  6.0000  0.0236  0.0204  0.0188  0.0179  0.0175  0.0172  0.0171  0.0171
  7.0000  0.0268  0.0240  0.0228  0.0224  0.0217  0.0207  0.0202  0.0202
  8.0000  0.0322  0.0301  0.0294  0.0276  0.0257  0.0257  0.0248  0.0248
  9.0000  0.0412  0.0398  0.0369  0.0339  0.0328  0.0309  0.0302  0.0302
 10.0000  0.0554  0.0551  0.0480  0.0437  0.0398  0.0395  0.0382  0.0382
 11.0000  0.0751  0.0757  0.0647  0.0555  0.0515  0.0495  0.0471  0.0471
 12.0000  0.1260  0.1296  0.1158  0.1063  0.0676  0.1005  0.0621  0.0621
 16.0000  0.1550  0.1550  0.1550  0.1550  0.1550  0.1550  0.1550  0.1550
 23.0000  0.3831  0.3831  0.3831  0.3831  0.3831  0.3831  0.3831  0.3831
 30.0000  0.5620  0.5620  0.5620  0.5620  0.5620  0.5620  0.5620  0.5620
 90.0000  2.0220  2.0220  2.0220  2.0220  2.0220  2.0220  2.0220  2.0220
135.0000  1.1945  1.1945  1.1945  1.1945  1.1945  1.1945  1.1945  1.1945
160.0000  0.3020  0.3020  0.3020  0.3020  0.3020  0.3020  0.3020  0.3020
165.0000  0.2420  0.2420  0.2420  0.2420  0.2420  0.2420  0.2420  0.2420
170.0000  0.1320  0.1320  0.1320  0.1320  0.1320  0.1320  0.1320  0.1320
180.0000  0.0220  0.0220  0.0220  0.0220  0.0220  0.0220  0.0220  0.0220
        0.0690  0.1034  0.1379  0.1724  0.2069  0.2413  0.2758  0.9000
-180.0000  0.0000  0.0000  0.0000  0.0000  0.0000  0.0000  0.0000  0.0000
-170.0000  0.4000  0.4000  0.4000  0.4000  0.4000  0.4000  0.4000  0.4000
-165.0000  0.3000  0.3000  0.3000  0.3000  0.3000  0.3000  0.3000  0.3000
-160.0000  0.3000  0.3000  0.3000  0.3000  0.3000  0.3000  0.3000  0.3000
-135.0000  0.5000  0.5000  0.5000  0.5000  0.5000  0.5000  0.5000  0.5000
-90.0000  0.5000  0.5000  0.5000  0.5000  0.5000  0.5000  0.5000  0.5000
-30.0000  0.1740  0.1740  0.1740  0.1740  0.1740  0.1740  0.1740  0.1740
-23.0000  0.1120  0.1120  0.1120  0.1120  0.1120  0.1120  0.1120  0.1120
-16.0000  0.0730  0.0730  0.0730  0.0730  0.0730  0.0730  0.0730  0.0730
-15.0000  0.0540  0.0540  0.0540  0.0540  0.0540  0.0540  0.0540  0.0540
-14.0000  0.0000  0.0000  0.0000  0.0000  0.0000  0.0000  0.0000  0.0000
-13.0000  0.0000  0.0000  0.0000  0.0000  0.0000  0.0000  0.0000  0.0000
-12.0000  0.0000  0.0000  0.0000  0.0000  0.0000  0.0000  0.0000  0.0000
-11.0000  0.0000  0.0000  0.0000  0.0000  0.0000  0.0000  0.0000  0.0000
-10.0000  0.0000  0.0000  0.0000  0.0000  0.0000  0.0000  0.0000  0.0000
 -9.0000  0.0000  0.0000  0.0000  0.0000  0.0000  0.0000  0.0000  0.0000
 -8.0000  0.0000  0.0000  0.0000  0.0000  0.0000  0.0000  0.0000  0.0000
 -7.0000  0.0000  0.0000  0.0000  0.0000  0.0000  0.0000  0.0000  0.0000
 -6.0000  0.0000  0.0000  0.0000  0.0000  0.0000  0.0000  0.0000  0.0000
 -5.0000 -0.0529 -0.0540 -0.0545 -0.0548 -0.0552 -0.0558 -0.0567 -0.0567
 -4.0000 -0.0504 -0.0523 -0.0530 -0.0534 -0.0539 -0.0546 -0.0553 -0.0553
 -3.0000 -0.0402 -0.0493 -0.0526 -0.0543 -0.0552 -0.0558 -0.0564 -0.0564
 -2.0000 -0.0257 -0.0372 -0.0457 -0.0503 -0.0531 -0.0550 -0.0564 -0.0564
 -1.0000 -0.0417 -0.0453 -0.0361 -0.0408 -0.0463 -0.0502 -0.0530 -0.0530
  0.0000 -0.0408 -0.0433 -0.0441 -0.0448 -0.0449 -0.0427 -0.0453 -0.0453
  1.0000 -0.0413 -0.0438 -0.0449 -0.0458 -0.0465 -0.0472 -0.0479 -0.0479
  2.0000 -0.0415 -0.0441 -0.0455 -0.0465 -0.0475 -0.0483 -0.0491 -0.0491
  3.0000 -0.0414 -0.0441 -0.0456 -0.0468 -0.0479 -0.0488 -0.0496 -0.0496
  4.0000 -0.0410 -0.0438 -0.0455 -0.0467 -0.0478 -0.0487 -0.0495 -0.0495
  5.0000 -0.0402 -0.0431 -0.0448 -0.0461 -0.0471 -0.0479 -0.0485 -0.0485
  6.0000 -0.0387 -0.0416 -0.0432 -0.0441 -0.0446 -0.0450 -0.0453 -0.0453
  7.0000 -0.0358 -0.0383 -0.0398 -0.0408 -0.0415 -0.0419 -0.0422 -0.0422
  8.0000 -0.0326 -0.0360 -0.0378 -0.0387 -0.0389 -0.0390 -0.0386 -0.0386
  9.0000 -0.0302 -0.0328 -0.0350 -0.0352 -0.0355 -0.0349 -0.0343 -0.0343
 10.0000 -0.0245 -0.0257 -0.0280 -0.0298 -0.0297 -0.0290 -0.0267 -0.0267
 11.0000 -0.0178 -0.0190 -0.0181 -0.0202 -0.0214 -0.0182 -0.0161 -0.0161
 12.0000 -0.0506 -0.0553 -0.0334 -0.0278 -0.0145 -0.0275 -0.0129 -0.0129
 16.0000 -0.0730 -0.0730 -0.0730 -0.0730 -0.0730 -0.0730 -0.0730 -0.0730
 23.0000 -0.1120 -0.1120 -0.1120 -0.1120 -0.1120 -0.1120 -0.1120 -0.1120
 30.0000 -0.1740 -0.1740 -0.1740 -0.1740 -0.1740 -0.1740 -0.1740 -0.1740
 90.0000 -0.5000 -0.5000 -0.5000 -0.5000 -0.5000 -0.5000 -0.5000 -0.5000
135.0000 -0.5000 -0.5000 -0.5000 -0.5000 -0.5000 -0.5000 -0.5000 -0.5000
160.0000 -0.3000 -0.3000 -0.3000 -0.3000 -0.3000 -0.3000 -0.3000 -0.3000
165.0000 -0.3000 -0.3000 -0.3000 -0.3000 -0.3000 -0.3000 -0.3000 -0.3000
170.0000 -0.4000 -0.4000 -0.4000 -0.4000 -0.4000 -0.4000 -0.4000 -0.4000
180.0000  0.0000  0.0000  0.0000  0.0000  0.0000  0.0000  0.0000  0.0000
COMMENT #1 
COMMENT #2 
                     AF NAME   846 846 846
        0.0734  0.1100  0.1467  0.1834  0.2201  0.2568  0.2935  0.9000
-180.0000  0.0000  0.0000  0.0000  0.0000  0.0000  0.0000  0.0000  0.0000
-170.0000  0.7452  0.7452  0.7452  0.7452  0.7452  0.7452  0.7452  0.7452
-165.0000  0.6757  0.6757  0.6757  0.6757  0.6757  0.6757  0.6757  0.6757
-160.0000  0.6471  0.6471  0.6471  0.6471  0.6471  0.6471  0.6471  0.6471
-135.0000  1.0000  1.0000  1.0000  1.0000  1.0000  1.0000  1.0000  1.0000
-90.0000 -0.0627 -0.0627 -0.0627 -0.0627 -0.0627 -0.0627 -0.0627 -0.0627
-30.0000 -0.9900 -0.9900 -0.9900 -0.9900 -0.9900 -0.9900 -0.9900 -0.9900
-23.0000 -0.8422 -0.8422 -0.8422 -0.8422 -0.8422 -0.8422 -0.8422 -0.8422
-16.0000 -1.0680 -1.0680 -1.0680 -1.0680 -1.0680 -1.0680 -1.0680 -1.0680
-15.0000 -1.1900 -1.1900 -1.1900 -1.1900 -1.1900 -1.1900 -1.1900 -1.1900
-14.0000 -1.3330 -1.3330 -1.3330 -1.3330 -1.3330 -1.3330 -1.3330 -1.3330
-13.0000 -1.3340 -1.3340 -1.3340 -1.3340 -1.3340 -1.3340 -1.3340 -1.3340
-12.0000 -1.2550 -1.2550 -1.2550 -1.2550 -1.2550 -1.2550 -1.2550 -1.2550
-11.0000 -1.1610 -1.1610 -1.1610 -1.1610 -1.1610 -1.1610 -1.1610 -1.1610
-10.0000 -1.0550 -1.0550 -1.0550 -1.0550 -1.0550 -1.0550 -1.0550 -1.0550
 -9.0000 -0.9495 -0.9495 -0.9495 -0.9495 -0.9495 -0.9495 -0.9495 -0.9495
 -8.0000 -0.8440 -0.8440 -0.8440 -0.8440 -0.8440 -0.8440 -0.8440 -0.8440
 -7.0000 -0.7385 -0.7385 -0.7385 -0.7385 -0.7385 -0.7385 -0.7385 -0.7385
 -6.0000 -0.6330 -0.6330 -0.6330 -0.6330 -0.6330 -0.6330 -0.6330 -0.6330
 -5.0000 -0.3503 -0.3387 -0.3378 -0.3400 -0.3424 -0.3459 -0.3515 -0.3515
 -4.0000 -0.2399 -0.2291 -0.2270 -0.2273 -0.2297 -0.2313 -0.2350 -0.2350
 -3.0000 -0.1532 -0.1278 -0.1187 -0.1152 -0.1141 -0.1141 -0.1148 -0.1148
 -2.0000 -0.0828 -0.0464 -0.0217 -0.0095 -0.0029  0.0010  0.0034  0.0034
 -1.0000  0.0901  0.1094  0.0624  0.0762  0.0939  0.1061  0.1147  0.1147
  0.0000  0.1909  0.2019  0.2054  0.2081  0.2110  0.2007  0.2086  0.2086
  1.0000  0.3024  0.3144  0.3199  0.3245  0.3291  0.3339  0.3390  0.3390
  2.0000  0.4140  0.4274  0.4347  0.4411  0.4477  0.4546  0.4620  0.4620
  3.0000  0.5245  0.5394  0.5483  0.5565  0.5648  0.5736  0.5832  0.5832
  4.0000  0.6333  0.6499  0.6606  0.6704  0.6804  0.6912  0.7028  0.7028
  5.0000  0.7398  0.7584  0.7708  0.7822  0.7939  0.8062  0.8192  0.8192
  6.0000  0.8420  0.8620  0.8748  0.8859  0.8972  0.9091  0.9250  0.9250
  7.0000  0.9352  0.9562  0.9723  0.9851  0.9984  1.0107  1.0281  1.0281
  8.0000  1.0317  1.0594  1.0753  1.0861  1.0979  1.1130  1.1285  1.1285
  9.0000  1.1193  1.1387  1.1579  1.1720  1.1876  1.1982  1.2135  1.2135
 10.0000  1.1392  1.1818  1.2101  1.2359  1.2427  1.2594  1.2653  1.2653
 11.0000  1.0308  1.0045  1.1682  1.2268  1.2353  1.2506  1.2287  1.2287
 12.0000  0.8932  0.8890  0.8840  0.7139  0.7198  1.1594  1.1228  1.1228
 16.0000  1.0680  1.0680  1.0680  1.0680  1.0680  1.0680  1.0680  1.0680
 23.0000  0.8422  0.8422  0.8422  0.8422  0.8422  0.8422  0.8422  0.8422
 30.0000  0.9900  0.9900  0.9900  0.9900  0.9900  0.9900  0.9900  0.9900
 90.0000  0.0628  0.0628  0.0628  0.0628  0.0628  0.0628  0.0628  0.0628
135.0000 -1.0000 -1.0000 -1.0000 -1.0000 -1.0000 -1.0000 -1.0000 -1.0000
160.0000 -0.6471 -0.6471 -0.6471 -0.6471 -0.6471 -0.6471 -0.6471 -0.6471
165.0000 -0.6757 -0.6757 -0.6757 -0.6757 -0.6757 -0.6757 -0.6757 -0.6757
170.0000 -0.7452 -0.7452 -0.7452 -0.7452 -0.7452 -0.7452 -0.7452 -0.7452
180.0000  0.0000  0.0000  0.0000  0.0000  0.0000  0.0000  0.0000  0.0000
        0.0734  0.1100  0.1467  0.1834  0.2201  0.2568  0.2935  0.9000
-180.0000  0.0220  0.0220  0.0220  0.0220  0.0220  0.0220  0.0220  0.0220
-170.0000  0.1320  0.1320  0.1320  0.1320  0.1320  0.1320  0.1320  0.1320
-165.0000  0.2420  0.2420  0.2420  0.2420  0.2420  0.2420  0.2420  0.2420
-160.0000  0.3020  0.3020  0.3020  0.3020  0.3020  0.3020  0.3020  0.3020
-135.0000  1.1945  1.1945  1.1945  1.1945  1.1945  1.1945  1.1945  1.1945
-90.0000  2.0220  2.0220  2.0220  2.0220  2.0220  2.0220  2.0220  2.0220
-30.0000  0.5620  0.5620  0.5620  0.5620  0.5620  0.5620  0.5620  0.5620
-23.0000  0.3831  0.3831  0.3831  0.3831  0.3831  0.3831  0.3831  0.3831
-16.0000  0.1550  0.1550  0.1550  0.1550  0.1550  0.1550  0.1550  0.1550
-15.0000  0.1020  0.1020  0.1020  0.1020  0.1020  0.1020  0.1020  0.1020
-14.0000  0.0380  0.0380  0.0380  0.0380  0.0380  0.0380  0.0380  0.0380
-13.0000  0.0264  0.0264  0.0264  0.0264  0.0264  0.0264  0.0264  0.0264
-12.0000  0.0220  0.0220  0.0220  0.0220  0.0220  0.0220  0.0220  0.0220
-11.0000  0.0196  0.0196  0.0196  0.0196  0.0196  0.0196  0.0196  0.0196
-10.0000  0.0174  0.0174  0.0174  0.0174  0.0174  0.0174  0.0174  0.0174
 -9.0000  0.0154  0.0154  0.0154  0.0154  0.0154  0.0154  0.0154  0.0154
 -8.0000  0.0138  0.0138  0.0138  0.0138  0.0138  0.0138  0.0138  0.0138
 -7.0000  0.0122  0.0122  0.0122  0.0122  0.0122  0.0122  0.0122  0.0122
 -6.0000  0.0110  0.0110  0.0110  0.0110  0.0110  0.0110  0.0110  0.0110
 -5.0000  0.0314  0.0283  0.0252  0.0243  0.0230  0.0232  0.0227  0.0227
 -4.0000  0.0242  0.0212  0.0196  0.0188  0.0177  0.0176  0.0170  0.0170
 -3.0000  0.0180  0.0154  0.0142  0.0137  0.0135  0.0134  0.0135  0.0135
 -2.0000  0.0175  0.0149  0.0134  0.0125  0.0120  0.0116  0.0113  0.0113
 -1.0000  0.0166  0.0144  0.0130  0.0122  0.0116  0.0112  0.0108  0.0108
  0.0000  0.0167  0.0143  0.0129  0.0120  0.0114  0.0109  0.0107  0.0107
  1.0000  0.0171  0.0147  0.0133  0.0124  0.0117  0.0112  0.0108  0.0108
  2.0000  0.0178  0.0153  0.0139  0.0129  0.0122  0.0117  0.0113  0.0113
  3.0000  0.0186  0.0160  0.0146  0.0136  0.0129  0.0123  0.0119  0.0119
  4.0000  0.0197  0.0170  0.0154  0.0144  0.0136  0.0131  0.0126  0.0126
  5.0000  0.0211  0.0182  0.0165  0.0155  0.0147  0.0142  0.0140  0.0140
  6.0000  0.0231  0.0201  0.0186  0.0179  0.0176  0.0173  0.0168  0.0168
  7.0000  0.0266  0.0240  0.0231  0.0224  0.0212  0.0212  0.0204  0.0204
  8.0000  0.0325  0.0308  0.0295  0.0272  0.0266  0.0254  0.0249  0.0249
  9.0000  0.0427  0.0418  0.0371  0.0346  0.0321  0.0323  0.0312  0.0312
 10.0000  0.0588  0.0547  0.0495  0.0423  0.0413  0.0392  0.0397  0.0397
 11.0000  0.0822  0.0871  0.0639  0.0568  0.0531  0.0520  0.0518  0.0518
 12.0000  0.1301  0.1332  0.1362  0.1113  0.1076  0.0708  0.0784  0.0784
 16.0000  0.1550  0.1550  0.1550  0.1550  0.1550  0.1550  0.1550  0.1550
 23.0000  0.3831  0.3831  0.3831  0.3831  0.3831  0.3831  0.3831  0.3831
 30.0000  0.5620  0.5620  0.5620  0.5620  0.5620  0.5620  0.5620  0.5620
 90.0000  2.0220  2.0220  2.0220  2.0220  2.0220  2.0220  2.0220  2.0220
135.0000  1.1945  1.1945  1.1945  1.1945  1.1945  1.1945  1.1945  1.1945
160.0000  0.3020  0.3020  0.3020  0.3020  0.3020  0.3020  0.3020  0.3020
165.0000  0.2420  0.2420  0.2420  0.2420  0.2420  0.2420  0.2420  0.2420
170.0000  0.1320  0.1320  0.1320  0.1320  0.1320  0.1320  0.1320  0.1320
180.0000  0.0220  0.0220  0.0220  0.0220  0.0220  0.0220  0.0220  0.0220
        0.0734  0.1100  0.1467  0.1834  0.2201  0.2568  0.2935  0.9000
-180.0000  0.0000  0.0000  0.0000  0.0000  0.0000  0.0000  0.0000  0.0000
-170.0000  0.4000  0.4000  0.4000  0.4000  0.4000  0.4000  0.4000  0.4000
-165.0000  0.3000  0.3000  0.3000  0.3000  0.3000  0.3000  0.3000  0.3000
-160.0000  0.3000  0.3000  0.3000  0.3000  0.3000  0.3000  0.3000  0.3000
-135.0000  0.5000  0.5000  0.5000  0.5000  0.5000  0.5000  0.5000  0.5000
-90.0000  0.5000  0.5000  0.5000  0.5000  0.5000  0.5000  0.5000  0.5000
-30.0000  0.1740  0.1740  0.1740  0.1740  0.1740  0.1740  0.1740  0.1740
-23.0000  0.1120  0.1120  0.1120  0.1120  0.1120  0.1120  0.1120  0.1120
-16.0000  0.0730  0.0730  0.0730  0.0730  0.0730  0.0730  0.0730  0.0730
-15.0000  0.0540  0.0540  0.0540  0.0540  0.0540  0.0540  0.0540  0.0540
-14.0000  0.0000  0.0000  0.0000  0.0000  0.0000  0.0000  0.0000  0.0000
-13.0000  0.0000  0.0000  0.0000  0.0000  0.0000  0.0000  0.0000  0.0000
-12.0000  0.0000  0.0000  0.0000  0.0000  0.0000  0.0000  0.0000  0.0000
-11.0000  0.0000  0.0000  0.0000  0.0000  0.0000  0.0000  0.0000  0.0000
-10.0000  0.0000  0.0000  0.0000  0.0000  0.0000  0.0000  0.0000  0.0000
 -9.0000  0.0000  0.0000  0.0000  0.0000  0.0000  0.0000  0.0000  0.0000
 -8.0000  0.0000  0.0000  0.0000  0.0000  0.0000  0.0000  0.0000  0.0000
 -7.0000  0.0000  0.0000  0.0000  0.0000  0.0000  0.0000  0.0000  0.0000
 -6.0000  0.0000  0.0000  0.0000  0.0000  0.0000  0.0000  0.0000  0.0000
 -5.0000 -0.0519 -0.0528 -0.0534 -0.0538 -0.0542 -0.0549 -0.0559 -0.0559
 -4.0000 -0.0500 -0.0514 -0.0518 -0.0522 -0.0528 -0.0535 -0.0544 -0.0544
 -3.0000 -0.0425 -0.0496 -0.0521 -0.0532 -0.0537 -0.0541 -0.0545 -0.0545
 -2.0000 -0.0252 -0.0385 -0.0462 -0.0502 -0.0526 -0.0542 -0.0555 -0.0555
 -1.0000 -0.0405 -0.0438 -0.0360 -0.0409 -0.0462 -0.0499 -0.0525 -0.0525
  0.0000 -0.0403 -0.0425 -0.0433 -0.0439 -0.0444 -0.0427 -0.0451 -0.0451
  1.0000 -0.0409 -0.0432 -0.0443 -0.0452 -0.0460 -0.0467 -0.0474 -0.0474
  2.0000 -0.0412 -0.0435 -0.0448 -0.0459 -0.0468 -0.0477 -0.0485 -0.0485
  3.0000 -0.0411 -0.0436 -0.0450 -0.0461 -0.0472 -0.0481 -0.0489 -0.0489
  4.0000 -0.0407 -0.0432 -0.0448 -0.0460 -0.0470 -0.0479 -0.0487 -0.0487
  5.0000 -0.0399 -0.0425 -0.0441 -0.0453 -0.0463 -0.0470 -0.0475 -0.0475
  6.0000 -0.0384 -0.0409 -0.0423 -0.0430 -0.0434 -0.0439 -0.0444 -0.0444
  7.0000 -0.0353 -0.0376 -0.0390 -0.0401 -0.0407 -0.0410 -0.0410 -0.0410
  8.0000 -0.0325 -0.0355 -0.0373 -0.0376 -0.0380 -0.0378 -0.0374 -0.0374
  9.0000 -0.0296 -0.0314 -0.0332 -0.0341 -0.0342 -0.0335 -0.0321 -0.0321
 10.0000 -0.0233 -0.0260 -0.0285 -0.0287 -0.0278 -0.0268 -0.0249 -0.0249
 11.0000 -0.0216 -0.0277 -0.0182 -0.0199 -0.0179 -0.0171 -0.0133 -0.0133
 12.0000 -0.0540 -0.0585 -0.0620 -0.0303 -0.0308 -0.0170 -0.0256 -0.0256
 16.0000 -0.0730 -0.0730 -0.0730 -0.0730 -0.0730 -0.0730 -0.0730 -0.0730
 23.0000 -0.1120 -0.1120 -0.1120 -0.1120 -0.1120 -0.1120 -0.1120 -0.1120
 30.0000 -0.1740 -0.1740 -0.1740 -0.1740 -0.1740 -0.1740 -0.1740 -0.1740
 90.0000 -0.5000 -0.5000 -0.5000 -0.5000 -0.5000 -0.5000 -0.5000 -0.5000
135.0000 -0.5000 -0.5000 -0.5000 -0.5000 -0.5000 -0.5000 -0.5000 -0.5000
160.0000 -0.3000 -0.3000 -0.3000 -0.3000 -0.3000 -0.3000 -0.3000 -0.3000
165.0000 -0.3000 -0.3000 -0.3000 -0.3000 -0.3000 -0.3000 -0.3000 -0.3000
170.0000 -0.4000 -0.4000 -0.4000 -0.4000 -0.4000 -0.4000 -0.4000 -0.4000
180.0000  0.0000  0.0000  0.0000  0.0000  0.0000  0.0000  0.0000  0.0000
COMMENT #1 
COMMENT #2 
                     AF NAME   846 846 846
        0.0778  0.1167  0.1556  0.1944  0.2333  0.2722  0.3111  0.9000
-180.0000  0.0000  0.0000  0.0000  0.0000  0.0000  0.0000  0.0000  0.0000
-170.0000  0.7452  0.7452  0.7452  0.7452  0.7452  0.7452  0.7452  0.7452
-165.0000  0.6757  0.6757  0.6757  0.6757  0.6757  0.6757  0.6757  0.6757
-160.0000  0.6471  0.6471  0.6471  0.6471  0.6471  0.6471  0.6471  0.6471
-135.0000  1.0000  1.0000  1.0000  1.0000  1.0000  1.0000  1.0000  1.0000
-90.0000 -0.0627 -0.0627 -0.0627 -0.0627 -0.0627 -0.0627 -0.0627 -0.0627
-30.0000 -0.9900 -0.9900 -0.9900 -0.9900 -0.9900 -0.9900 -0.9900 -0.9900
-23.0000 -0.8422 -0.8422 -0.8422 -0.8422 -0.8422 -0.8422 -0.8422 -0.8422
-16.0000 -1.0680 -1.0680 -1.0680 -1.0680 -1.0680 -1.0680 -1.0680 -1.0680
-15.0000 -1.1900 -1.1900 -1.1900 -1.1900 -1.1900 -1.1900 -1.1900 -1.1900
-14.0000 -1.3330 -1.3330 -1.3330 -1.3330 -1.3330 -1.3330 -1.3330 -1.3330
-13.0000 -1.3340 -1.3340 -1.3340 -1.3340 -1.3340 -1.3340 -1.3340 -1.3340
-12.0000 -1.2550 -1.2550 -1.2550 -1.2550 -1.2550 -1.2550 -1.2550 -1.2550
-11.0000 -1.1610 -1.1610 -1.1610 -1.1610 -1.1610 -1.1610 -1.1610 -1.1610
-10.0000 -1.0550 -1.0550 -1.0550 -1.0550 -1.0550 -1.0550 -1.0550 -1.0550
 -9.0000 -0.9495 -0.9495 -0.9495 -0.9495 -0.9495 -0.9495 -0.9495 -0.9495
 -8.0000 -0.8440 -0.8440 -0.8440 -0.8440 -0.8440 -0.8440 -0.8440 -0.8440
 -7.0000 -0.7385 -0.7385 -0.7385 -0.7385 -0.7385 -0.7385 -0.7385 -0.7385
 -6.0000 -0.6330 -0.6330 -0.6330 -0.6330 -0.6330 -0.6330 -0.6330 -0.6330
 -5.0000 -0.3538 -0.3427 -0.3414 -0.3444 -0.3468 -0.3514 -0.3562 -0.3562
 -4.0000 -0.2416 -0.2315 -0.2298 -0.2306 -0.2330 -0.2353 -0.2395 -0.2395
 -3.0000 -0.1529 -0.1285 -0.1197 -0.1167 -0.1160 -0.1164 -0.1179 -0.1179
 -2.0000 -0.0745 -0.0487 -0.0233 -0.0108 -0.0042 -0.0003  0.0019  0.0019
 -1.0000  0.0821  0.0979  0.0695  0.0729  0.0909  0.1045  0.1137  0.1137
  0.0000  0.1892  0.2003  0.2039  0.2067  0.2094  0.2097  0.2070  0.2070
  1.0000  0.3019  0.3140  0.3198  0.3248  0.3299  0.3353  0.3411  0.3411
  2.0000  0.4140  0.4274  0.4350  0.4418  0.4489  0.4565  0.4647  0.4647
  3.0000  0.5249  0.5397  0.5490  0.5576  0.5665  0.5761  0.5866  0.5866
  4.0000  0.6340  0.6506  0.6615  0.6719  0.6826  0.6943  0.7072  0.7072
  5.0000  0.7408  0.7592  0.7720  0.7840  0.7963  0.8092  0.8227  0.8227
  6.0000  0.8428  0.8621  0.8746  0.8863  0.8975  0.9137  0.9278  0.9278
  7.0000  0.9359  0.9581  0.9757  0.9879  1.0008  1.0168  1.0346  1.0346
  8.0000  1.0359  1.0618  1.0753  1.0871  1.1014  1.1146  1.1329  1.1329
  9.0000  1.1146  1.1401  1.1568  1.1710  1.1828  1.1995  1.2121  1.2121
 10.0000  1.1135  1.1489  1.1828  1.2119  1.2343  1.2348  1.2299  1.2299
 11.0000  0.9693  0.9370  1.0948  1.1550  1.2127  1.1795  1.1550  1.1550
 12.0000  0.8872  0.9370  0.8805  0.7355  1.0501  1.0412  0.8635  0.8635
 16.0000  1.0680  1.0680  1.0680  1.0680  1.0680  1.0680  1.0680  1.0680
 23.0000  0.8422  0.8422  0.8422  0.8422  0.8422  0.8422  0.8422  0.8422
 30.0000  0.9900  0.9900  0.9900  0.9900  0.9900  0.9900  0.9900  0.9900
 90.0000  0.0628  0.0628  0.0628  0.0628  0.0628  0.0628  0.0628  0.0628
135.0000 -1.0000 -1.0000 -1.0000 -1.0000 -1.0000 -1.0000 -1.0000 -1.0000
160.0000 -0.6471 -0.6471 -0.6471 -0.6471 -0.6471 -0.6471 -0.6471 -0.6471
165.0000 -0.6757 -0.6757 -0.6757 -0.6757 -0.6757 -0.6757 -0.6757 -0.6757
170.0000 -0.7452 -0.7452 -0.7452 -0.7452 -0.7452 -0.7452 -0.7452 -0.7452
180.0000  0.0000  0.0000  0.0000  0.0000  0.0000  0.0000  0.0000  0.0000
        0.0778  0.1167  0.1556  0.1944  0.2333  0.2722  0.3111  0.9000
-180.0000  0.0220  0.0220  0.0220  0.0220  0.0220  0.0220  0.0220  0.0220
-170.0000  0.1320  0.1320  0.1320  0.1320  0.1320  0.1320  0.1320  0.1320
-165.0000  0.2420  0.2420  0.2420  0.2420  0.2420  0.2420  0.2420  0.2420
-160.0000  0.3020  0.3020  0.3020  0.3020  0.3020  0.3020  0.3020  0.3020
-135.0000  1.1945  1.1945  1.1945  1.1945  1.1945  1.1945  1.1945  1.1945
-90.0000  2.0220  2.0220  2.0220  2.0220  2.0220  2.0220  2.0220  2.0220
-30.0000  0.5620  0.5620  0.5620  0.5620  0.5620  0.5620  0.5620  0.5620
-23.0000  0.3831  0.3831  0.3831  0.3831  0.3831  0.3831  0.3831  0.3831
-16.0000  0.1550  0.1550  0.1550  0.1550  0.1550  0.1550  0.1550  0.1550
-15.0000  0.1020  0.1020  0.1020  0.1020  0.1020  0.1020  0.1020  0.1020
-14.0000  0.0380  0.0380  0.0380  0.0380  0.0380  0.0380  0.0380  0.0380
-13.0000  0.0264  0.0264  0.0264  0.0264  0.0264  0.0264  0.0264  0.0264
-12.0000  0.0220  0.0220  0.0220  0.0220  0.0220  0.0220  0.0220  0.0220
-11.0000  0.0196  0.0196  0.0196  0.0196  0.0196  0.0196  0.0196  0.0196
-10.0000  0.0174  0.0174  0.0174  0.0174  0.0174  0.0174  0.0174  0.0174
 -9.0000  0.0154  0.0154  0.0154  0.0154  0.0154  0.0154  0.0154  0.0154
 -8.0000  0.0138  0.0138  0.0138  0.0138  0.0138  0.0138  0.0138  0.0138
 -7.0000  0.0122  0.0122  0.0122  0.0122  0.0122  0.0122  0.0122  0.0122
 -6.0000  0.0110  0.0110  0.0110  0.0110  0.0110  0.0110  0.0110  0.0110
 -5.0000  0.0322  0.0291  0.0263  0.0250  0.0237  0.0222  0.0228  0.0228
 -4.0000  0.0246  0.0215  0.0199  0.0190  0.0180  0.0180  0.0174  0.0174
 -3.0000  0.0179  0.0154  0.0143  0.0138  0.0137  0.0138  0.0139  0.0139
 -2.0000  0.0173  0.0147  0.0133  0.0125  0.0119  0.0116  0.0113  0.0113
 -1.0000  0.0165  0.0142  0.0128  0.0121  0.0115  0.0111  0.0108  0.0108
  0.0000  0.0166  0.0142  0.0129  0.0120  0.0113  0.0108  0.0105  0.0105
  1.0000  0.0171  0.0146  0.0133  0.0123  0.0117  0.0112  0.0107  0.0107
  2.0000  0.0177  0.0152  0.0138  0.0129  0.0122  0.0117  0.0113  0.0113
  3.0000  0.0186  0.0160  0.0145  0.0135  0.0129  0.0123  0.0119  0.0119
  4.0000  0.0197  0.0169  0.0154  0.0144  0.0137  0.0131  0.0127  0.0127
  5.0000  0.0211  0.0182  0.0166  0.0155  0.0149  0.0145  0.0144  0.0144
  6.0000  0.0232  0.0203  0.0190  0.0184  0.0184  0.0175  0.0176  0.0176
  7.0000  0.0272  0.0249  0.0241  0.0230  0.0222  0.0215  0.0210  0.0210
  8.0000  0.0340  0.0326  0.0308  0.0294  0.0271  0.0275  0.0266  0.0266
  9.0000  0.0458  0.0437  0.0396  0.0358  0.0348  0.0330  0.0334  0.0334
 10.0000  0.0639  0.0606  0.0517  0.0470  0.0434  0.0441  0.0444  0.0444
 11.0000  0.0948  0.1054  0.0718  0.0632  0.0575  0.0581  0.0612  0.0612
 12.0000  0.1341  0.1054  0.1397  0.1065  0.0919  0.0951  0.0820  0.0820
 16.0000  0.1550  0.1550  0.1550  0.1550  0.1550  0.1550  0.1550  0.1550
 23.0000  0.3831  0.3831  0.3831  0.3831  0.3831  0.3831  0.3831  0.3831
 30.0000  0.5620  0.5620  0.5620  0.5620  0.5620  0.5620  0.5620  0.5620
 90.0000  2.0220  2.0220  2.0220  2.0220  2.0220  2.0220  2.0220  2.0220
135.0000  1.1945  1.1945  1.1945  1.1945  1.1945  1.1945  1.1945  1.1945
160.0000  0.3020  0.3020  0.3020  0.3020  0.3020  0.3020  0.3020  0.3020
165.0000  0.2420  0.2420  0.2420  0.2420  0.2420  0.2420  0.2420  0.2420
170.0000  0.1320  0.1320  0.1320  0.1320  0.1320  0.1320  0.1320  0.1320
180.0000  0.0220  0.0220  0.0220  0.0220  0.0220  0.0220  0.0220  0.0220
        0.0778  0.1167  0.1556  0.1944  0.2333  0.2722  0.3111  0.9000
-180.0000  0.0000  0.0000  0.0000  0.0000  0.0000  0.0000  0.0000  0.0000
-170.0000  0.4000  0.4000  0.4000  0.4000  0.4000  0.4000  0.4000  0.4000
-165.0000  0.3000  0.3000  0.3000  0.3000  0.3000  0.3000  0.3000  0.3000
-160.0000  0.3000  0.3000  0.3000  0.3000  0.3000  0.3000  0.3000  0.3000
-135.0000  0.5000  0.5000  0.5000  0.5000  0.5000  0.5000  0.5000  0.5000
-90.0000  0.5000  0.5000  0.5000  0.5000  0.5000  0.5000  0.5000  0.5000
-30.0000  0.1740  0.1740  0.1740  0.1740  0.1740  0.1740  0.1740  0.1740
-23.0000  0.1120  0.1120  0.1120  0.1120  0.1120  0.1120  0.1120  0.1120
-16.0000  0.0730  0.0730  0.0730  0.0730  0.0730  0.0730  0.0730  0.0730
-15.0000  0.0540  0.0540  0.0540  0.0540  0.0540  0.0540  0.0540  0.0540
-14.0000  0.0000  0.0000  0.0000  0.0000  0.0000  0.0000  0.0000  0.0000
-13.0000  0.0000  0.0000  0.0000  0.0000  0.0000  0.0000  0.0000  0.0000
-12.0000  0.0000  0.0000  0.0000  0.0000  0.0000  0.0000  0.0000  0.0000
-11.0000  0.0000  0.0000  0.0000  0.0000  0.0000  0.0000  0.0000  0.0000
-10.0000  0.0000  0.0000  0.0000  0.0000  0.0000  0.0000  0.0000  0.0000
 -9.0000  0.0000  0.0000  0.0000  0.0000  0.0000  0.0000  0.0000  0.0000
 -8.0000  0.0000  0.0000  0.0000  0.0000  0.0000  0.0000  0.0000  0.0000
 -7.0000  0.0000  0.0000  0.0000  0.0000  0.0000  0.0000  0.0000  0.0000
 -6.0000  0.0000  0.0000  0.0000  0.0000  0.0000  0.0000  0.0000  0.0000
 -5.0000 -0.0515 -0.0524 -0.0530 -0.0535 -0.0537 -0.0544 -0.0552 -0.0552
 -4.0000 -0.0499 -0.0510 -0.0516 -0.0520 -0.0526 -0.0534 -0.0544 -0.0544
 -3.0000 -0.0428 -0.0495 -0.0520 -0.0529 -0.0534 -0.0536 -0.0542 -0.0542
 -2.0000 -0.0267 -0.0379 -0.0459 -0.0500 -0.0525 -0.0542 -0.0555 -0.0555
 -1.0000 -0.0395 -0.0424 -0.0374 -0.0401 -0.0455 -0.0496 -0.0524 -0.0524
  0.0000 -0.0402 -0.0424 -0.0433 -0.0439 -0.0445 -0.0446 -0.0445 -0.0445
  1.0000 -0.0409 -0.0432 -0.0443 -0.0453 -0.0462 -0.0470 -0.0478 -0.0478
  2.0000 -0.0412 -0.0435 -0.0449 -0.0460 -0.0469 -0.0479 -0.0487 -0.0487
  3.0000 -0.0412 -0.0436 -0.0450 -0.0462 -0.0472 -0.0481 -0.0490 -0.0490
  4.0000 -0.0408 -0.0433 -0.0448 -0.0460 -0.0470 -0.0479 -0.0487 -0.0487
  5.0000 -0.0399 -0.0425 -0.0441 -0.0453 -0.0461 -0.0467 -0.0469 -0.0469
  6.0000 -0.0383 -0.0407 -0.0418 -0.0425 -0.0429 -0.0437 -0.0438 -0.0438
  7.0000 -0.0351 -0.0374 -0.0389 -0.0398 -0.0404 -0.0406 -0.0405 -0.0405
  8.0000 -0.0326 -0.0353 -0.0366 -0.0376 -0.0374 -0.0373 -0.0363 -0.0363
  9.0000 -0.0290 -0.0317 -0.0334 -0.0333 -0.0331 -0.0322 -0.0308 -0.0308
 10.0000 -0.0227 -0.0245 -0.0254 -0.0266 -0.0263 -0.0245 -0.0209 -0.0209
 11.0000 -0.0322 -0.0437 -0.0184 -0.0165 -0.0170 -0.0144 -0.0160 -0.0160
 12.0000 -0.0569 -0.0437 -0.0644 -0.0278 -0.0345 -0.0385 -0.0173 -0.0173
 16.0000 -0.0730 -0.0730 -0.0730 -0.0730 -0.0730 -0.0730 -0.0730 -0.0730
 23.0000 -0.1120 -0.1120 -0.1120 -0.1120 -0.1120 -0.1120 -0.1120 -0.1120
 30.0000 -0.1740 -0.1740 -0.1740 -0.1740 -0.1740 -0.1740 -0.1740 -0.1740
 90.0000 -0.5000 -0.5000 -0.5000 -0.5000 -0.5000 -0.5000 -0.5000 -0.5000
135.0000 -0.5000 -0.5000 -0.5000 -0.5000 -0.5000 -0.5000 -0.5000 -0.5000
160.0000 -0.3000 -0.3000 -0.3000 -0.3000 -0.3000 -0.3000 -0.3000 -0.3000
165.0000 -0.3000 -0.3000 -0.3000 -0.3000 -0.3000 -0.3000 -0.3000 -0.3000
170.0000 -0.4000 -0.4000 -0.4000 -0.4000 -0.4000 -0.4000 -0.4000 -0.4000
180.0000  0.0000  0.0000  0.0000  0.0000  0.0000  0.0000  0.0000  0.0000
COMMENT #1 
COMMENT #2 
                     AF NAME   846 846 846
        0.0822  0.1233  0.1644  0.2055  0.2466  0.2877  0.3288  0.9000
-180.0000  0.0000  0.0000  0.0000  0.0000  0.0000  0.0000  0.0000  0.0000
-170.0000  0.7452  0.7452  0.7452  0.7452  0.7452  0.7452  0.7452  0.7452
-165.0000  0.6757  0.6757  0.6757  0.6757  0.6757  0.6757  0.6757  0.6757
-160.0000  0.6471  0.6471  0.6471  0.6471  0.6471  0.6471  0.6471  0.6471
-135.0000  1.0000  1.0000  1.0000  1.0000  1.0000  1.0000  1.0000  1.0000
-90.0000 -0.0627 -0.0627 -0.0627 -0.0627 -0.0627 -0.0627 -0.0627 -0.0627
-30.0000 -0.9900 -0.9900 -0.9900 -0.9900 -0.9900 -0.9900 -0.9900 -0.9900
-23.0000 -0.8422 -0.8422 -0.8422 -0.8422 -0.8422 -0.8422 -0.8422 -0.8422
-16.0000 -1.0680 -1.0680 -1.0680 -1.0680 -1.0680 -1.0680 -1.0680 -1.0680
-15.0000 -1.1900 -1.1900 -1.1900 -1.1900 -1.1900 -1.1900 -1.1900 -1.1900
-14.0000 -1.3330 -1.3330 -1.3330 -1.3330 -1.3330 -1.3330 -1.3330 -1.3330
-13.0000 -1.3340 -1.3340 -1.3340 -1.3340 -1.3340 -1.3340 -1.3340 -1.3340
-12.0000 -1.2550 -1.2550 -1.2550 -1.2550 -1.2550 -1.2550 -1.2550 -1.2550
-11.0000 -1.1610 -1.1610 -1.1610 -1.1610 -1.1610 -1.1610 -1.1610 -1.1610
-10.0000 -1.0550 -1.0550 -1.0550 -1.0550 -1.0550 -1.0550 -1.0550 -1.0550
 -9.0000 -0.9495 -0.9495 -0.9495 -0.9495 -0.9495 -0.9495 -0.9495 -0.9495
 -8.0000 -0.8440 -0.8440 -0.8440 -0.8440 -0.8440 -0.8440 -0.8440 -0.8440
 -7.0000 -0.7385 -0.7385 -0.7385 -0.7385 -0.7385 -0.7385 -0.7385 -0.7385
 -6.0000 -0.6330 -0.6330 -0.6330 -0.6330 -0.6330 -0.6330 -0.6330 -0.6330
 -5.0000 -0.3409 -0.3333 -0.3295 -0.3308 -0.3356 -0.3396 -0.3471 -0.3471
 -4.0000 -0.2297 -0.2200 -0.2163 -0.2175 -0.2201 -0.2228 -0.2273 -0.2273
 -3.0000 -0.1532 -0.1215 -0.1090 -0.1040 -0.1024 -0.1025 -0.1037 -0.1037
 -2.0000  0.0053 -0.0497 -0.0230 -0.0042  0.0059  0.0120  0.0156  0.0156
 -1.0000  0.0914  0.1026  0.1061  0.1002  0.0916  0.1066  0.1205  0.1205
  0.0000  0.2023  0.2158  0.2206  0.2242  0.2277  0.2314  0.2353  0.2353
  1.0000  0.3153  0.3302  0.3369  0.3426  0.3484  0.3546  0.3615  0.3615
  2.0000  0.4278  0.4436  0.4520  0.4596  0.4674  0.4759  0.4853  0.4853
  3.0000  0.5390  0.5559  0.5660  0.5753  0.5851  0.5958  0.6078  0.6078
  4.0000  0.6481  0.6666  0.6784  0.6896  0.7014  0.7144  0.7289  0.7289
  5.0000  0.7543  0.7746  0.7882  0.8007  0.8133  0.8264  0.8421  0.8421
  6.0000  0.8543  0.8746  0.8877  0.9013  0.9161  0.9302  0.9494  0.9494
  7.0000  0.9479  0.9744  0.9941  1.0066  1.0202  1.0367  1.0542  1.0542
  8.0000  1.0498  1.0749  1.0882  1.1006  1.1143  1.1309  1.1489  1.1489
  9.0000  1.1158  1.1327  1.1471  1.1678  1.1823  1.1904  1.1926  1.1926
 10.0000  1.1017  1.0978  1.1205  1.1571  1.1980  1.1669  1.1430  1.1430
 11.0000  0.9573  1.0218  0.9800  0.9262  1.1102  1.0510  0.9694  0.9694
 12.0000  0.8968  0.8993  0.6962  0.8982  0.8761  0.7006  0.9151  0.9151
 16.0000  1.0680  1.0680  1.0680  1.0680  1.0680  1.0680  1.0680  1.0680
 23.0000  0.8422  0.8422  0.8422  0.8422  0.8422  0.8422  0.8422  0.8422
 30.0000  0.9900  0.9900  0.9900  0.9900  0.9900  0.9900  0.9900  0.9900
 90.0000  0.0628  0.0628  0.0628  0.0628  0.0628  0.0628  0.0628  0.0628
135.0000 -1.0000 -1.0000 -1.0000 -1.0000 -1.0000 -1.0000 -1.0000 -1.0000
160.0000 -0.6471 -0.6471 -0.6471 -0.6471 -0.6471 -0.6471 -0.6471 -0.6471
165.0000 -0.6757 -0.6757 -0.6757 -0.6757 -0.6757 -0.6757 -0.6757 -0.6757
170.0000 -0.7452 -0.7452 -0.7452 -0.7452 -0.7452 -0.7452 -0.7452 -0.7452
180.0000  0.0000  0.0000  0.0000  0.0000  0.0000  0.0000  0.0000  0.0000
        0.0822  0.1233  0.1644  0.2055  0.2466  0.2877  0.3288  0.9000
-180.0000  0.0220  0.0220  0.0220  0.0220  0.0220  0.0220  0.0220  0.0220
-170.0000  0.1320  0.1320  0.1320  0.1320  0.1320  0.1320  0.1320  0.1320
-165.0000  0.2420  0.2420  0.2420  0.2420  0.2420  0.2420  0.2420  0.2420
-160.0000  0.3020  0.3020  0.3020  0.3020  0.3020  0.3020  0.3020  0.3020
-135.0000  1.1945  1.1945  1.1945  1.1945  1.1945  1.1945  1.1945  1.1945
-90.0000  2.0220  2.0220  2.0220  2.0220  2.0220  2.0220  2.0220  2.0220
-30.0000  0.5620  0.5620  0.5620  0.5620  0.5620  0.5620  0.5620  0.5620
-23.0000  0.3831  0.3831  0.3831  0.3831  0.3831  0.3831  0.3831  0.3831
-16.0000  0.1550  0.1550  0.1550  0.1550  0.1550  0.1550  0.1550  0.1550
-15.0000  0.1020  0.1020  0.1020  0.1020  0.1020  0.1020  0.1020  0.1020
-14.0000  0.0380  0.0380  0.0380  0.0380  0.0380  0.0380  0.0380  0.0380
-13.0000  0.0264  0.0264  0.0264  0.0264  0.0264  0.0264  0.0264  0.0264
-12.0000  0.0220  0.0220  0.0220  0.0220  0.0220  0.0220  0.0220  0.0220
-11.0000  0.0196  0.0196  0.0196  0.0196  0.0196  0.0196  0.0196  0.0196
-10.0000  0.0174  0.0174  0.0174  0.0174  0.0174  0.0174  0.0174  0.0174
 -9.0000  0.0154  0.0154  0.0154  0.0154  0.0154  0.0154  0.0154  0.0154
 -8.0000  0.0138  0.0138  0.0138  0.0138  0.0138  0.0138  0.0138  0.0138
 -7.0000  0.0122  0.0122  0.0122  0.0122  0.0122  0.0122  0.0122  0.0122
 -6.0000  0.0110  0.0110  0.0110  0.0110  0.0110  0.0110  0.0110  0.0110
 -5.0000  0.0325  0.0284  0.0257  0.0247  0.0233  0.0236  0.0232  0.0232
 -4.0000  0.0245  0.0215  0.0202  0.0191  0.0184  0.0179  0.0171  0.0171
 -3.0000  0.0185  0.0158  0.0144  0.0137  0.0135  0.0134  0.0137  0.0137
 -2.0000  0.0177  0.0150  0.0137  0.0128  0.0122  0.0118  0.0115  0.0115
 -1.0000  0.0171  0.0146  0.0131  0.0122  0.0117  0.0113  0.0110  0.0110
  0.0000  0.0174  0.0148  0.0134  0.0124  0.0117  0.0112  0.0108  0.0108
  1.0000  0.0179  0.0153  0.0138  0.0129  0.0122  0.0116  0.0112  0.0112
  2.0000  0.0186  0.0159  0.0144  0.0135  0.0127  0.0122  0.0118  0.0118
  3.0000  0.0195  0.0168  0.0152  0.0142  0.0134  0.0129  0.0124  0.0124
  4.0000  0.0207  0.0178  0.0162  0.0151  0.0143  0.0138  0.0134  0.0134
  5.0000  0.0223  0.0192  0.0175  0.0165  0.0160  0.0159  0.0157  0.0157
  6.0000  0.0250  0.0221  0.0209  0.0205  0.0198  0.0198  0.0192  0.0192
  7.0000  0.0297  0.0276  0.0272  0.0255  0.0247  0.0238  0.0242  0.0242
  8.0000  0.0381  0.0370  0.0344  0.0326  0.0321  0.0303  0.0299  0.0299
  9.0000  0.0517  0.0521  0.0456  0.0424  0.0400  0.0407  0.0411  0.0411
 10.0000  0.0709  0.0714  0.0642  0.0582  0.0537  0.0545  0.0560  0.0560
 11.0000  0.1029  0.1007  0.0981  0.1135  0.0726  0.0813  0.1046  0.1046
 12.0000  0.1382  0.1402  0.1262  0.1448  0.1490  0.1213  0.1389  0.1389
 16.0000  0.1550  0.1550  0.1550  0.1550  0.1550  0.1550  0.1550  0.1550
 23.0000  0.3831  0.3831  0.3831  0.3831  0.3831  0.3831  0.3831  0.3831
 30.0000  0.5620  0.5620  0.5620  0.5620  0.5620  0.5620  0.5620  0.5620
 90.0000  2.0220  2.0220  2.0220  2.0220  2.0220  2.0220  2.0220  2.0220
135.0000  1.1945  1.1945  1.1945  1.1945  1.1945  1.1945  1.1945  1.1945
160.0000  0.3020  0.3020  0.3020  0.3020  0.3020  0.3020  0.3020  0.3020
165.0000  0.2420  0.2420  0.2420  0.2420  0.2420  0.2420  0.2420  0.2420
170.0000  0.1320  0.1320  0.1320  0.1320  0.1320  0.1320  0.1320  0.1320
180.0000  0.0220  0.0220  0.0220  0.0220  0.0220  0.0220  0.0220  0.0220
        0.0822  0.1233  0.1644  0.2055  0.2466  0.2877  0.3288  0.9000
-180.0000  0.0000  0.0000  0.0000  0.0000  0.0000  0.0000  0.0000  0.0000
-170.0000  0.4000  0.4000  0.4000  0.4000  0.4000  0.4000  0.4000  0.4000
-165.0000  0.3000  0.3000  0.3000  0.3000  0.3000  0.3000  0.3000  0.3000
-160.0000  0.3000  0.3000  0.3000  0.3000  0.3000  0.3000  0.3000  0.3000
-135.0000  0.5000  0.5000  0.5000  0.5000  0.5000  0.5000  0.5000  0.5000
-90.0000  0.5000  0.5000  0.5000  0.5000  0.5000  0.5000  0.5000  0.5000
-30.0000  0.1740  0.1740  0.1740  0.1740  0.1740  0.1740  0.1740  0.1740
-23.0000  0.1120  0.1120  0.1120  0.1120  0.1120  0.1120  0.1120  0.1120
-16.0000  0.0730  0.0730  0.0730  0.0730  0.0730  0.0730  0.0730  0.0730
-15.0000  0.0540  0.0540  0.0540  0.0540  0.0540  0.0540  0.0540  0.0540
-14.0000  0.0000  0.0000  0.0000  0.0000  0.0000  0.0000  0.0000  0.0000
-13.0000  0.0000  0.0000  0.0000  0.0000  0.0000  0.0000  0.0000  0.0000
-12.0000  0.0000  0.0000  0.0000  0.0000  0.0000  0.0000  0.0000  0.0000
-11.0000  0.0000  0.0000  0.0000  0.0000  0.0000  0.0000  0.0000  0.0000
-10.0000  0.0000  0.0000  0.0000  0.0000  0.0000  0.0000  0.0000  0.0000
 -9.0000  0.0000  0.0000  0.0000  0.0000  0.0000  0.0000  0.0000  0.0000
 -8.0000  0.0000  0.0000  0.0000  0.0000  0.0000  0.0000  0.0000  0.0000
 -7.0000  0.0000  0.0000  0.0000  0.0000  0.0000  0.0000  0.0000  0.0000
 -6.0000  0.0000  0.0000  0.0000  0.0000  0.0000  0.0000  0.0000  0.0000
 -5.0000 -0.0501 -0.0512 -0.0515 -0.0516 -0.0524 -0.0529 -0.0542 -0.0542
 -4.0000 -0.0484 -0.0494 -0.0503 -0.0507 -0.0515 -0.0521 -0.0530 -0.0530
 -3.0000 -0.0364 -0.0460 -0.0498 -0.0517 -0.0527 -0.0532 -0.0535 -0.0535
 -2.0000 -0.0391 -0.0311 -0.0401 -0.0462 -0.0497 -0.0522 -0.0540 -0.0540
 -1.0000 -0.0383 -0.0406 -0.0413 -0.0404 -0.0398 -0.0445 -0.0486 -0.0486
  0.0000 -0.0391 -0.0418 -0.0429 -0.0437 -0.0444 -0.0451 -0.0458 -0.0458
  1.0000 -0.0398 -0.0425 -0.0437 -0.0447 -0.0457 -0.0466 -0.0475 -0.0475
  2.0000 -0.0402 -0.0428 -0.0442 -0.0453 -0.0463 -0.0473 -0.0482 -0.0482
  3.0000 -0.0402 -0.0428 -0.0443 -0.0454 -0.0465 -0.0474 -0.0483 -0.0483
  4.0000 -0.0399 -0.0425 -0.0440 -0.0452 -0.0462 -0.0470 -0.0478 -0.0478
  5.0000 -0.0391 -0.0417 -0.0432 -0.0442 -0.0448 -0.0451 -0.0454 -0.0454
  6.0000 -0.0372 -0.0394 -0.0404 -0.0410 -0.0417 -0.0420 -0.0422 -0.0422
  7.0000 -0.0339 -0.0366 -0.0382 -0.0388 -0.0392 -0.0392 -0.0387 -0.0387
  8.0000 -0.0319 -0.0343 -0.0352 -0.0357 -0.0362 -0.0352 -0.0342 -0.0342
  9.0000 -0.0278 -0.0296 -0.0299 -0.0311 -0.0301 -0.0291 -0.0259 -0.0259
 10.0000 -0.0224 -0.0229 -0.0222 -0.0222 -0.0228 -0.0185 -0.0160 -0.0160
 11.0000 -0.0355 -0.0325 -0.0359 -0.0510 -0.0175 -0.0289 -0.0492 -0.0492
 12.0000 -0.0566 -0.0596 -0.0380 -0.0641 -0.0715 -0.0386 -0.0659 -0.0659
 16.0000 -0.0730 -0.0730 -0.0730 -0.0730 -0.0730 -0.0730 -0.0730 -0.0730
 23.0000 -0.1120 -0.1120 -0.1120 -0.1120 -0.1120 -0.1120 -0.1120 -0.1120
 30.0000 -0.1740 -0.1740 -0.1740 -0.1740 -0.1740 -0.1740 -0.1740 -0.1740
 90.0000 -0.5000 -0.5000 -0.5000 -0.5000 -0.5000 -0.5000 -0.5000 -0.5000
135.0000 -0.5000 -0.5000 -0.5000 -0.5000 -0.5000 -0.5000 -0.5000 -0.5000
160.0000 -0.3000 -0.3000 -0.3000 -0.3000 -0.3000 -0.3000 -0.3000 -0.3000
165.0000 -0.3000 -0.3000 -0.3000 -0.3000 -0.3000 -0.3000 -0.3000 -0.3000
170.0000 -0.4000 -0.4000 -0.4000 -0.4000 -0.4000 -0.4000 -0.4000 -0.4000
180.0000  0.0000  0.0000  0.0000  0.0000  0.0000  0.0000  0.0000  0.0000
COMMENT #1 
COMMENT #2 
                     AF NAME   846 846 846
        0.0866  0.1299  0.1732  0.2165  0.2598  0.3031  0.3464  0.9000
-180.0000  0.0000  0.0000  0.0000  0.0000  0.0000  0.0000  0.0000  0.0000
-170.0000  0.7452  0.7452  0.7452  0.7452  0.7452  0.7452  0.7452  0.7452
-165.0000  0.6757  0.6757  0.6757  0.6757  0.6757  0.6757  0.6757  0.6757
-160.0000  0.6471  0.6471  0.6471  0.6471  0.6471  0.6471  0.6471  0.6471
-135.0000  1.0000  1.0000  1.0000  1.0000  1.0000  1.0000  1.0000  1.0000
-90.0000 -0.0627 -0.0627 -0.0627 -0.0627 -0.0627 -0.0627 -0.0627 -0.0627
-30.0000 -0.9900 -0.9900 -0.9900 -0.9900 -0.9900 -0.9900 -0.9900 -0.9900
-23.0000 -0.8422 -0.8422 -0.8422 -0.8422 -0.8422 -0.8422 -0.8422 -0.8422
-16.0000 -1.0680 -1.0680 -1.0680 -1.0680 -1.0680 -1.0680 -1.0680 -1.0680
-15.0000 -1.1900 -1.1900 -1.1900 -1.1900 -1.1900 -1.1900 -1.1900 -1.1900
-14.0000 -1.3330 -1.3330 -1.3330 -1.3330 -1.3330 -1.3330 -1.3330 -1.3330
-13.0000 -1.3340 -1.3340 -1.3340 -1.3340 -1.3340 -1.3340 -1.3340 -1.3340
-12.0000 -1.2550 -1.2550 -1.2550 -1.2550 -1.2550 -1.2550 -1.2550 -1.2550
-11.0000 -1.1610 -1.1610 -1.1610 -1.1610 -1.1610 -1.1610 -1.1610 -1.1610
-10.0000 -1.0550 -1.0550 -1.0550 -1.0550 -1.0550 -1.0550 -1.0550 -1.0550
 -9.0000 -0.9495 -0.9495 -0.9495 -0.9495 -0.9495 -0.9495 -0.9495 -0.9495
 -8.0000 -0.8440 -0.8440 -0.8440 -0.8440 -0.8440 -0.8440 -0.8440 -0.8440
 -7.0000 -0.7385 -0.7385 -0.7385 -0.7385 -0.7385 -0.7385 -0.7385 -0.7385
 -6.0000 -0.6330 -0.6330 -0.6330 -0.6330 -0.6330 -0.6330 -0.6330 -0.6330
 -5.0000 -0.3608 -0.3512 -0.3464 -0.3468 -0.3491 -0.3569 -0.3640 -0.3640
 -4.0000 -0.2454 -0.2354 -0.2306 -0.2299 -0.2322 -0.2364 -0.2414 -0.2414
 -3.0000 -0.1841 -0.1442 -0.1263 -0.1177 -0.1146 -0.1144 -0.1162 -0.1162
 -2.0000 -0.0235 -0.0070 -0.0535 -0.0307 -0.0145 -0.0045  0.0012  0.0012
 -1.0000  0.0773  0.0867  0.0937  0.0959  0.0970  0.0878  0.0924  0.0924
  0.0000  0.1892  0.2027  0.2112  0.2158  0.2197  0.2237  0.2281  0.2281
  1.0000  0.3012  0.3183  0.3279  0.3344  0.3406  0.3473  0.3546  0.3546
  2.0000  0.4123  0.4326  0.4435  0.4518  0.4601  0.4691  0.4793  0.4793
  3.0000  0.5222  0.5454  0.5577  0.5679  0.5783  0.5898  0.6027  0.6027
  4.0000  0.6314  0.6563  0.6704  0.6825  0.6951  0.7091  0.7248  0.7248
  5.0000  0.7379  0.7645  0.7803  0.7940  0.8077  0.8220  0.8379  0.8379
  6.0000  0.8385  0.8651  0.8805  0.8951  0.9118  0.9295  0.9478  0.9478
  7.0000  0.9322  0.9643  0.9863  1.0039  1.0185  1.0358  1.0532  1.0532
  8.0000  1.0334  1.0630  1.0779  1.0929  1.1090  1.1191  1.1351  1.1351
  9.0000  1.0925  1.1086  1.1059  1.1260  1.1428  1.1455  1.1447  1.1447
 10.0000  1.0626  1.0630  1.0265  1.0444  1.0784  1.0420  1.0600  1.0600
 11.0000  0.9292  0.9231  0.9139  0.9047  0.8961  0.8888  0.9041  0.9041
 12.0000  0.8905  0.8910  0.6922  0.9047  0.8844  0.8733  0.6561  0.6561
 16.0000  1.0680  1.0680  1.0680  1.0680  1.0680  1.0680  1.0680  1.0680
 23.0000  0.8422  0.8422  0.8422  0.8422  0.8422  0.8422  0.8422  0.8422
 30.0000  0.9900  0.9900  0.9900  0.9900  0.9900  0.9900  0.9900  0.9900
 90.0000  0.0628  0.0628  0.0628  0.0628  0.0628  0.0628  0.0628  0.0628
135.0000 -1.0000 -1.0000 -1.0000 -1.0000 -1.0000 -1.0000 -1.0000 -1.0000
160.0000 -0.6471 -0.6471 -0.6471 -0.6471 -0.6471 -0.6471 -0.6471 -0.6471
165.0000 -0.6757 -0.6757 -0.6757 -0.6757 -0.6757 -0.6757 -0.6757 -0.6757
170.0000 -0.7452 -0.7452 -0.7452 -0.7452 -0.7452 -0.7452 -0.7452 -0.7452
180.0000  0.0000  0.0000  0.0000  0.0000  0.0000  0.0000  0.0000  0.0000
        0.0866  0.1299  0.1732  0.2165  0.2598  0.3031  0.3464  0.9000
-180.0000  0.0220  0.0220  0.0220  0.0220  0.0220  0.0220  0.0220  0.0220
-170.0000  0.1320  0.1320  0.1320  0.1320  0.1320  0.1320  0.1320  0.1320
-165.0000  0.2420  0.2420  0.2420  0.2420  0.2420  0.2420  0.2420  0.2420
-160.0000  0.3020  0.3020  0.3020  0.3020  0.3020  0.3020  0.3020  0.3020
-135.0000  1.1945  1.1945  1.1945  1.1945  1.1945  1.1945  1.1945  1.1945
-90.0000  2.0220  2.0220  2.0220  2.0220  2.0220  2.0220  2.0220  2.0220
-30.0000  0.5620  0.5620  0.5620  0.5620  0.5620  0.5620  0.5620  0.5620
-23.0000  0.3831  0.3831  0.3831  0.3831  0.3831  0.3831  0.3831  0.3831
-16.0000  0.1550  0.1550  0.1550  0.1550  0.1550  0.1550  0.1550  0.1550
-15.0000  0.1020  0.1020  0.1020  0.1020  0.1020  0.1020  0.1020  0.1020
-14.0000  0.0380  0.0380  0.0380  0.0380  0.0380  0.0380  0.0380  0.0380
-13.0000  0.0264  0.0264  0.0264  0.0264  0.0264  0.0264  0.0264  0.0264
-12.0000  0.0220  0.0220  0.0220  0.0220  0.0220  0.0220  0.0220  0.0220
-11.0000  0.0196  0.0196  0.0196  0.0196  0.0196  0.0196  0.0196  0.0196
-10.0000  0.0174  0.0174  0.0174  0.0174  0.0174  0.0174  0.0174  0.0174
 -9.0000  0.0154  0.0154  0.0154  0.0154  0.0154  0.0154  0.0154  0.0154
 -8.0000  0.0138  0.0138  0.0138  0.0138  0.0138  0.0138  0.0138  0.0138
 -7.0000  0.0122  0.0122  0.0122  0.0122  0.0122  0.0122  0.0122  0.0122
 -6.0000  0.0110  0.0110  0.0110  0.0110  0.0110  0.0110  0.0110  0.0110
 -5.0000  0.0361  0.0320  0.0288  0.0276  0.0275  0.0267  0.0262  0.0262
 -4.0000  0.0272  0.0240  0.0223  0.0212  0.0205  0.0195  0.0193  0.0193
 -3.0000  0.0208  0.0175  0.0158  0.0149  0.0145  0.0146  0.0150  0.0150
 -2.0000  0.0193  0.0167  0.0149  0.0140  0.0133  0.0128  0.0125  0.0125
 -1.0000  0.0190  0.0162  0.0145  0.0134  0.0126  0.0121  0.0118  0.0118
  0.0000  0.0193  0.0165  0.0148  0.0137  0.0129  0.0123  0.0118  0.0118
  1.0000  0.0199  0.0170  0.0152  0.0141  0.0133  0.0127  0.0122  0.0122
  2.0000  0.0207  0.0177  0.0159  0.0148  0.0139  0.0133  0.0128  0.0128
  3.0000  0.0218  0.0186  0.0167  0.0155  0.0147  0.0141  0.0136  0.0136
  4.0000  0.0231  0.0197  0.0178  0.0166  0.0157  0.0151  0.0146  0.0146
  5.0000  0.0249  0.0213  0.0193  0.0182  0.0175  0.0173  0.0175  0.0175
  6.0000  0.0278  0.0243  0.0228  0.0222  0.0223  0.0219  0.0220  0.0220
  7.0000  0.0328  0.0301  0.0295  0.0292  0.0287  0.0277  0.0287  0.0287
  8.0000  0.0416  0.0403  0.0408  0.0386  0.0359  0.0365  0.0364  0.0364
  9.0000  0.0565  0.0563  0.0563  0.0525  0.0504  0.0500  0.0513  0.0513
 10.0000  0.0767  0.0774  0.0801  0.0746  0.0692  0.0723  0.0699  0.0699
 11.0000  0.1116  0.1158  0.1200  0.1241  0.1281  0.1319  0.1257  0.1257
 12.0000  0.1415  0.1439  0.1307  0.1241  0.1520  0.1550  0.1361  0.1361
 16.0000  0.1550  0.1550  0.1550  0.1550  0.1550  0.1550  0.1550  0.1550
 23.0000  0.3831  0.3831  0.3831  0.3831  0.3831  0.3831  0.3831  0.3831
 30.0000  0.5620  0.5620  0.5620  0.5620  0.5620  0.5620  0.5620  0.5620
 90.0000  2.0220  2.0220  2.0220  2.0220  2.0220  2.0220  2.0220  2.0220
135.0000  1.1945  1.1945  1.1945  1.1945  1.1945  1.1945  1.1945  1.1945
160.0000  0.3020  0.3020  0.3020  0.3020  0.3020  0.3020  0.3020  0.3020
165.0000  0.2420  0.2420  0.2420  0.2420  0.2420  0.2420  0.2420  0.2420
170.0000  0.1320  0.1320  0.1320  0.1320  0.1320  0.1320  0.1320  0.1320
180.0000  0.0220  0.0220  0.0220  0.0220  0.0220  0.0220  0.0220  0.0220
        0.0866  0.1299  0.1732  0.2165  0.2598  0.3031  0.3464  0.9000
-180.0000  0.0000  0.0000  0.0000  0.0000  0.0000  0.0000  0.0000  0.0000
-170.0000  0.4000  0.4000  0.4000  0.4000  0.4000  0.4000  0.4000  0.4000
-165.0000  0.3000  0.3000  0.3000  0.3000  0.3000  0.3000  0.3000  0.3000
-160.0000  0.3000  0.3000  0.3000  0.3000  0.3000  0.3000  0.3000  0.3000
-135.0000  0.5000  0.5000  0.5000  0.5000  0.5000  0.5000  0.5000  0.5000
-90.0000  0.5000  0.5000  0.5000  0.5000  0.5000  0.5000  0.5000  0.5000
-30.0000  0.1740  0.1740  0.1740  0.1740  0.1740  0.1740  0.1740  0.1740
-23.0000  0.1120  0.1120  0.1120  0.1120  0.1120  0.1120  0.1120  0.1120
-16.0000  0.0730  0.0730  0.0730  0.0730  0.0730  0.0730  0.0730  0.0730
-15.0000  0.0540  0.0540  0.0540  0.0540  0.0540  0.0540  0.0540  0.0540
-14.0000  0.0000  0.0000  0.0000  0.0000  0.0000  0.0000  0.0000  0.0000
-13.0000  0.0000  0.0000  0.0000  0.0000  0.0000  0.0000  0.0000  0.0000
-12.0000  0.0000  0.0000  0.0000  0.0000  0.0000  0.0000  0.0000  0.0000
-11.0000  0.0000  0.0000  0.0000  0.0000  0.0000  0.0000  0.0000  0.0000
-10.0000  0.0000  0.0000  0.0000  0.0000  0.0000  0.0000  0.0000  0.0000
 -9.0000  0.0000  0.0000  0.0000  0.0000  0.0000  0.0000  0.0000  0.0000
 -8.0000  0.0000  0.0000  0.0000  0.0000  0.0000  0.0000  0.0000  0.0000
 -7.0000  0.0000  0.0000  0.0000  0.0000  0.0000  0.0000  0.0000  0.0000
 -6.0000  0.0000  0.0000  0.0000  0.0000  0.0000  0.0000  0.0000  0.0000
 -5.0000 -0.0487 -0.0499 -0.0503 -0.0510 -0.0512 -0.0522 -0.0531 -0.0531
 -4.0000 -0.0473 -0.0484 -0.0494 -0.0502 -0.0507 -0.0513 -0.0523 -0.0523
 -3.0000 -0.0287 -0.0415 -0.0472 -0.0503 -0.0519 -0.0526 -0.0528 -0.0528
 -2.0000 -0.0360 -0.0384 -0.0325 -0.0403 -0.0458 -0.0496 -0.0523 -0.0523
 -1.0000 -0.0368 -0.0389 -0.0405 -0.0411 -0.0415 -0.0402 -0.0426 -0.0426
  0.0000 -0.0378 -0.0405 -0.0422 -0.0431 -0.0440 -0.0448 -0.0456 -0.0456
  1.0000 -0.0383 -0.0415 -0.0431 -0.0442 -0.0451 -0.0461 -0.0470 -0.0470
  2.0000 -0.0384 -0.0420 -0.0436 -0.0447 -0.0457 -0.0467 -0.0477 -0.0477
  3.0000 -0.0384 -0.0421 -0.0437 -0.0449 -0.0459 -0.0469 -0.0478 -0.0478
  4.0000 -0.0382 -0.0418 -0.0435 -0.0447 -0.0457 -0.0465 -0.0472 -0.0472
  5.0000 -0.0377 -0.0411 -0.0427 -0.0437 -0.0443 -0.0446 -0.0445 -0.0445
  6.0000 -0.0362 -0.0389 -0.0400 -0.0406 -0.0410 -0.0413 -0.0413 -0.0413
  7.0000 -0.0331 -0.0359 -0.0376 -0.0382 -0.0389 -0.0384 -0.0380 -0.0380
  8.0000 -0.0309 -0.0335 -0.0343 -0.0351 -0.0348 -0.0336 -0.0321 -0.0321
  9.0000 -0.0270 -0.0283 -0.0278 -0.0279 -0.0277 -0.0257 -0.0237 -0.0237
 10.0000 -0.0230 -0.0238 -0.0244 -0.0225 -0.0201 -0.0230 -0.0206 -0.0206
 11.0000 -0.0415 -0.0469 -0.0513 -0.0552 -0.0587 -0.0619 -0.0601 -0.0601
 12.0000 -0.0579 -0.0617 -0.0405 -0.0552 -0.0702 -0.0758 -0.0490 -0.0490
 16.0000 -0.0730 -0.0730 -0.0730 -0.0730 -0.0730 -0.0730 -0.0730 -0.0730
 23.0000 -0.1120 -0.1120 -0.1120 -0.1120 -0.1120 -0.1120 -0.1120 -0.1120
 30.0000 -0.1740 -0.1740 -0.1740 -0.1740 -0.1740 -0.1740 -0.1740 -0.1740
 90.0000 -0.5000 -0.5000 -0.5000 -0.5000 -0.5000 -0.5000 -0.5000 -0.5000
135.0000 -0.5000 -0.5000 -0.5000 -0.5000 -0.5000 -0.5000 -0.5000 -0.5000
160.0000 -0.3000 -0.3000 -0.3000 -0.3000 -0.3000 -0.3000 -0.3000 -0.3000
165.0000 -0.3000 -0.3000 -0.3000 -0.3000 -0.3000 -0.3000 -0.3000 -0.3000
170.0000 -0.4000 -0.4000 -0.4000 -0.4000 -0.4000 -0.4000 -0.4000 -0.4000
180.0000  0.0000  0.0000  0.0000  0.0000  0.0000  0.0000  0.0000  0.0000
COMMENT #1 
COMMENT #2 
                     AF NAME   846 846 846
        0.0902  0.1354  0.1805  0.2256  0.2707  0.3159  0.3610  0.9000
-180.0000  0.0000  0.0000  0.0000  0.0000  0.0000  0.0000  0.0000  0.0000
-170.0000  0.7452  0.7452  0.7452  0.7452  0.7452  0.7452  0.7452  0.7452
-165.0000  0.6757  0.6757  0.6757  0.6757  0.6757  0.6757  0.6757  0.6757
-160.0000  0.6471  0.6471  0.6471  0.6471  0.6471  0.6471  0.6471  0.6471
-135.0000  1.0000  1.0000  1.0000  1.0000  1.0000  1.0000  1.0000  1.0000
-90.0000 -0.0627 -0.0627 -0.0627 -0.0627 -0.0627 -0.0627 -0.0627 -0.0627
-30.0000 -0.9900 -0.9900 -0.9900 -0.9900 -0.9900 -0.9900 -0.9900 -0.9900
-23.0000 -0.8422 -0.8422 -0.8422 -0.8422 -0.8422 -0.8422 -0.8422 -0.8422
-16.0000 -1.0680 -1.0680 -1.0680 -1.0680 -1.0680 -1.0680 -1.0680 -1.0680
-15.0000 -1.1900 -1.1900 -1.1900 -1.1900 -1.1900 -1.1900 -1.1900 -1.1900
-14.0000 -1.3330 -1.3330 -1.3330 -1.3330 -1.3330 -1.3330 -1.3330 -1.3330
-13.0000 -1.3340 -1.3340 -1.3340 -1.3340 -1.3340 -1.3340 -1.3340 -1.3340
-12.0000 -1.2550 -1.2550 -1.2550 -1.2550 -1.2550 -1.2550 -1.2550 -1.2550
-11.0000 -1.1610 -1.1610 -1.1610 -1.1610 -1.1610 -1.1610 -1.1610 -1.1610
-10.0000 -1.0550 -1.0550 -1.0550 -1.0550 -1.0550 -1.0550 -1.0550 -1.0550
 -9.0000 -0.9495 -0.9495 -0.9495 -0.9495 -0.9495 -0.9495 -0.9495 -0.9495
 -8.0000 -0.8440 -0.8440 -0.8440 -0.8440 -0.8440 -0.8440 -0.8440 -0.8440
 -7.0000 -0.7385 -0.7385 -0.7385 -0.7385 -0.7385 -0.7385 -0.7385 -0.7385
 -6.0000 -0.6330 -0.6330 -0.6330 -0.6330 -0.6330 -0.6330 -0.6330 -0.6330
 -5.0000 -0.3529 -0.3325 -0.3267 -0.3248 -0.3261 -0.3315 -0.3374 -0.3374
 -4.0000 -0.2493 -0.2191 -0.2110 -0.2069 -0.2058 -0.2068 -0.2095 -0.2095
 -3.0000 -0.0998 -0.0829 -0.1584 -0.1293 -0.1091 -0.0970 -0.0904 -0.0904
 -2.0000 -0.0111 -0.0036  0.0010  0.0044  0.0078 -0.0010 -0.0085 -0.0085
 -1.0000  0.0996  0.1112  0.1190  0.1254  0.1319  0.1362  0.1393  0.1393
  0.0000  0.2115  0.2262  0.2368  0.2463  0.2554  0.2623  0.2688  0.2688
  1.0000  0.3226  0.3402  0.3533  0.3663  0.3769  0.3862  0.3956  0.3956
  2.0000  0.4322  0.4528  0.4690  0.4846  0.4969  0.5086  0.5209  0.5209
  3.0000  0.5398  0.5636  0.5840  0.6011  0.6154  0.6296  0.6450  0.6450
  4.0000  0.6446  0.6722  0.6969  0.7155  0.7319  0.7487  0.7671  0.7671
  5.0000  0.7445  0.7787  0.8058  0.8258  0.8434  0.8609  0.8797  0.8797
  6.0000  0.8365  0.8778  0.9058  0.9267  0.9470  0.9695  0.9941  0.9941
  7.0000  0.9222  0.9752  1.0089  1.0337  1.0544  1.0713  1.0862  1.0862
  8.0000  1.0101  1.0681  1.0927  1.1037  1.1057  1.1190  1.0927  1.0927
  9.0000  1.0473  1.0871  1.0910  1.0779  1.0510  1.0108  0.9996  0.9996
 10.0000  0.9709  0.9864  0.9696  0.9416  0.9228  0.9084  0.8963  0.8963
 11.0000  0.9005  0.9046  0.9015  0.8964  0.6773  0.8869  0.8836  0.8836
 12.0000  0.8857  0.8894  0.8896  0.8889  0.8884  0.8885  0.6493  0.6493
 16.0000  1.0680  1.0680  1.0680  1.0680  1.0680  1.0680  1.0680  1.0680
 23.0000  0.8422  0.8422  0.8422  0.8422  0.8422  0.8422  0.8422  0.8422
 30.0000  0.9900  0.9900  0.9900  0.9900  0.9900  0.9900  0.9900  0.9900
 90.0000  0.0628  0.0628  0.0628  0.0628  0.0628  0.0628  0.0628  0.0628
135.0000 -1.0000 -1.0000 -1.0000 -1.0000 -1.0000 -1.0000 -1.0000 -1.0000
160.0000 -0.6471 -0.6471 -0.6471 -0.6471 -0.6471 -0.6471 -0.6471 -0.6471
165.0000 -0.6757 -0.6757 -0.6757 -0.6757 -0.6757 -0.6757 -0.6757 -0.6757
170.0000 -0.7452 -0.7452 -0.7452 -0.7452 -0.7452 -0.7452 -0.7452 -0.7452
180.0000  0.0000  0.0000  0.0000  0.0000  0.0000  0.0000  0.0000  0.0000
        0.0902  0.1354  0.1805  0.2256  0.2707  0.3159  0.3610  0.9000
-180.0000  0.0220  0.0220  0.0220  0.0220  0.0220  0.0220  0.0220  0.0220
-170.0000  0.1320  0.1320  0.1320  0.1320  0.1320  0.1320  0.1320  0.1320
-165.0000  0.2420  0.2420  0.2420  0.2420  0.2420  0.2420  0.2420  0.2420
-160.0000  0.3020  0.3020  0.3020  0.3020  0.3020  0.3020  0.3020  0.3020
-135.0000  1.1945  1.1945  1.1945  1.1945  1.1945  1.1945  1.1945  1.1945
-90.0000  2.0220  2.0220  2.0220  2.0220  2.0220  2.0220  2.0220  2.0220
-30.0000  0.5620  0.5620  0.5620  0.5620  0.5620  0.5620  0.5620  0.5620
-23.0000  0.3831  0.3831  0.3831  0.3831  0.3831  0.3831  0.3831  0.3831
-16.0000  0.1550  0.1550  0.1550  0.1550  0.1550  0.1550  0.1550  0.1550
-15.0000  0.1020  0.1020  0.1020  0.1020  0.1020  0.1020  0.1020  0.1020
-14.0000  0.0380  0.0380  0.0380  0.0380  0.0380  0.0380  0.0380  0.0380
-13.0000  0.0264  0.0264  0.0264  0.0264  0.0264  0.0264  0.0264  0.0264
-12.0000  0.0220  0.0220  0.0220  0.0220  0.0220  0.0220  0.0220  0.0220
-11.0000  0.0196  0.0196  0.0196  0.0196  0.0196  0.0196  0.0196  0.0196
-10.0000  0.0174  0.0174  0.0174  0.0174  0.0174  0.0174  0.0174  0.0174
 -9.0000  0.0154  0.0154  0.0154  0.0154  0.0154  0.0154  0.0154  0.0154
 -8.0000  0.0138  0.0138  0.0138  0.0138  0.0138  0.0138  0.0138  0.0138
 -7.0000  0.0122  0.0122  0.0122  0.0122  0.0122  0.0122  0.0122  0.0122
 -6.0000  0.0110  0.0110  0.0110  0.0110  0.0110  0.0110  0.0110  0.0110
 -5.0000  0.0401  0.0348  0.0318  0.0302  0.0295  0.0286  0.0289  0.0289
 -4.0000  0.0304  0.0258  0.0240  0.0229  0.0221  0.0217  0.0212  0.0212
 -3.0000  0.0255  0.0225  0.0199  0.0184  0.0174  0.0165  0.0160  0.0160
 -2.0000  0.0244  0.0208  0.0186  0.0171  0.0160  0.0153  0.0149  0.0149
 -1.0000  0.0246  0.0210  0.0187  0.0172  0.0161  0.0152  0.0145  0.0145
  0.0000  0.0251  0.0214  0.0192  0.0176  0.0165  0.0156  0.0150  0.0150
  1.0000  0.0259  0.0222  0.0198  0.0182  0.0171  0.0163  0.0156  0.0156
  2.0000  0.0270  0.0231  0.0207  0.0191  0.0179  0.0170  0.0164  0.0164
  3.0000  0.0285  0.0244  0.0218  0.0201  0.0189  0.0181  0.0174  0.0174
  4.0000  0.0305  0.0260  0.0233  0.0215  0.0203  0.0195  0.0189  0.0189
  5.0000  0.0331  0.0283  0.0255  0.0237  0.0227  0.0223  0.0223  0.0223
  6.0000  0.0369  0.0320  0.0294  0.0282  0.0279  0.0283  0.0293  0.0293
  7.0000  0.0430  0.0383  0.0365  0.0365  0.0374  0.0392  0.0408  0.0408
  8.0000  0.0530  0.0496  0.0494  0.0507  0.0532  0.0545  0.0576  0.0576
  9.0000  0.0695  0.0676  0.0686  0.0709  0.0741  0.0785  0.0801  0.0801
 10.0000  0.0938  0.0925  0.0966  0.1054  0.1121  0.1177  0.1228  0.1228
 11.0000  0.1280  0.1297  0.1328  0.1361  0.1200  0.1431  0.1467  0.1467
 12.0000  0.1526  0.1543  0.1566  0.1591  0.1618  0.1646  0.1391  0.1391
 16.0000  0.1550  0.1550  0.1550  0.1550  0.1550  0.1550  0.1550  0.1550
 23.0000  0.3831  0.3831  0.3831  0.3831  0.3831  0.3831  0.3831  0.3831
 30.0000  0.5620  0.5620  0.5620  0.5620  0.5620  0.5620  0.5620  0.5620
 90.0000  2.0220  2.0220  2.0220  2.0220  2.0220  2.0220  2.0220  2.0220
135.0000  1.1945  1.1945  1.1945  1.1945  1.1945  1.1945  1.1945  1.1945
160.0000  0.3020  0.3020  0.3020  0.3020  0.3020  0.3020  0.3020  0.3020
165.0000  0.2420  0.2420  0.2420  0.2420  0.2420  0.2420  0.2420  0.2420
170.0000  0.1320  0.1320  0.1320  0.1320  0.1320  0.1320  0.1320  0.1320
180.0000  0.0220  0.0220  0.0220  0.0220  0.0220  0.0220  0.0220  0.0220
        0.0902  0.1354  0.1805  0.2256  0.2707  0.3159  0.3610  0.9000
-180.0000  0.0000  0.0000  0.0000  0.0000  0.0000  0.0000  0.0000  0.0000
-170.0000  0.4000  0.4000  0.4000  0.4000  0.4000  0.4000  0.4000  0.4000
-165.0000  0.3000  0.3000  0.3000  0.3000  0.3000  0.3000  0.3000  0.3000
-160.0000  0.3000  0.3000  0.3000  0.3000  0.3000  0.3000  0.3000  0.3000
-135.0000  0.5000  0.5000  0.5000  0.5000  0.5000  0.5000  0.5000  0.5000
-90.0000  0.5000  0.5000  0.5000  0.5000  0.5000  0.5000  0.5000  0.5000
-30.0000  0.1740  0.1740  0.1740  0.1740  0.1740  0.1740  0.1740  0.1740
-23.0000  0.1120  0.1120  0.1120  0.1120  0.1120  0.1120  0.1120  0.1120
-16.0000  0.0730  0.0730  0.0730  0.0730  0.0730  0.0730  0.0730  0.0730
-15.0000  0.0540  0.0540  0.0540  0.0540  0.0540  0.0540  0.0540  0.0540
-14.0000  0.0000  0.0000  0.0000  0.0000  0.0000  0.0000  0.0000  0.0000
-13.0000  0.0000  0.0000  0.0000  0.0000  0.0000  0.0000  0.0000  0.0000
-12.0000  0.0000  0.0000  0.0000  0.0000  0.0000  0.0000  0.0000  0.0000
-11.0000  0.0000  0.0000  0.0000  0.0000  0.0000  0.0000  0.0000  0.0000
-10.0000  0.0000  0.0000  0.0000  0.0000  0.0000  0.0000  0.0000  0.0000
 -9.0000  0.0000  0.0000  0.0000  0.0000  0.0000  0.0000  0.0000  0.0000
 -8.0000  0.0000  0.0000  0.0000  0.0000  0.0000  0.0000  0.0000  0.0000
 -7.0000  0.0000  0.0000  0.0000  0.0000  0.0000  0.0000  0.0000  0.0000
 -6.0000  0.0000  0.0000  0.0000  0.0000  0.0000  0.0000  0.0000  0.0000
 -5.0000 -0.0448 -0.0489 -0.0500 -0.0507 -0.0515 -0.0527 -0.0536 -0.0536
 -4.0000 -0.0377 -0.0465 -0.0482 -0.0495 -0.0507 -0.0520 -0.0532 -0.0532
 -3.0000 -0.0332 -0.0350 -0.0259 -0.0365 -0.0438 -0.0488 -0.0525 -0.0525
 -2.0000 -0.0340 -0.0360 -0.0372 -0.0382 -0.0389 -0.0376 -0.0385 -0.0385
 -1.0000 -0.0355 -0.0381 -0.0399 -0.0414 -0.0429 -0.0439 -0.0447 -0.0447
  0.0000 -0.0364 -0.0393 -0.0414 -0.0432 -0.0449 -0.0461 -0.0471 -0.0471
  1.0000 -0.0370 -0.0401 -0.0424 -0.0445 -0.0461 -0.0473 -0.0484 -0.0484
  2.0000 -0.0372 -0.0406 -0.0431 -0.0454 -0.0468 -0.0480 -0.0490 -0.0490
  3.0000 -0.0371 -0.0407 -0.0436 -0.0457 -0.0471 -0.0481 -0.0491 -0.0491
  4.0000 -0.0367 -0.0404 -0.0437 -0.0455 -0.0467 -0.0476 -0.0483 -0.0483
  5.0000 -0.0356 -0.0399 -0.0429 -0.0444 -0.0452 -0.0455 -0.0453 -0.0453
  6.0000 -0.0336 -0.0382 -0.0405 -0.0413 -0.0417 -0.0420 -0.0419 -0.0419
  7.0000 -0.0310 -0.0354 -0.0376 -0.0388 -0.0391 -0.0385 -0.0377 -0.0377
  8.0000 -0.0290 -0.0330 -0.0344 -0.0343 -0.0333 -0.0327 -0.0297 -0.0297
  9.0000 -0.0266 -0.0284 -0.0286 -0.0282 -0.0274 -0.0281 -0.0287 -0.0287
 10.0000 -0.0292 -0.0301 -0.0352 -0.0444 -0.0507 -0.0555 -0.0598 -0.0598
 11.0000 -0.0497 -0.0539 -0.0580 -0.0616 -0.0377 -0.0683 -0.0716 -0.0716
 12.0000 -0.0620 -0.0662 -0.0697 -0.0728 -0.0758 -0.0788 -0.0483 -0.0483
 16.0000 -0.0730 -0.0730 -0.0730 -0.0730 -0.0730 -0.0730 -0.0730 -0.0730
 23.0000 -0.1120 -0.1120 -0.1120 -0.1120 -0.1120 -0.1120 -0.1120 -0.1120
 30.0000 -0.1740 -0.1740 -0.1740 -0.1740 -0.1740 -0.1740 -0.1740 -0.1740
 90.0000 -0.5000 -0.5000 -0.5000 -0.5000 -0.5000 -0.5000 -0.5000 -0.5000
135.0000 -0.5000 -0.5000 -0.5000 -0.5000 -0.5000 -0.5000 -0.5000 -0.5000
160.0000 -0.3000 -0.3000 -0.3000 -0.3000 -0.3000 -0.3000 -0.3000 -0.3000
165.0000 -0.3000 -0.3000 -0.3000 -0.3000 -0.3000 -0.3000 -0.3000 -0.3000
170.0000 -0.4000 -0.4000 -0.4000 -0.4000 -0.4000 -0.4000 -0.4000 -0.4000
180.0000  0.0000  0.0000  0.0000  0.0000  0.0000  0.0000  0.0000  0.0000
