bladebg.inp: CHARM Blade Geometry Input File made from blade.inp
KBGEOM
0
NSEG
 20
CUTOUT
          0.208334     0     0
SL(ISEG)
          0.039583    0.039583    0.039583    0.039583    0.039583
          0.039583    0.039583    0.039583    0.039583    0.039583
          0.039583    0.039583    0.039583    0.039583    0.039583
          0.039583    0.039583    0.039583    0.039583    0.039583
CHORD(ISEG)
          0.142750    0.152667    0.158740    0.162578    0.164582
          0.164917    0.164255    0.162760    0.160764    0.158683
          0.156600    0.154768    0.152855    0.150610    0.147942
          0.144867    0.139216    0.128064    0.109021    0.082971
          0.045833
ELOFSG(ISEG) - (elastic axis offset)
         -0.034405   -0.029156   -0.026357   -0.024106   -0.022221
         -0.020609   -0.019147   -0.017798   -0.016867   -0.016375
         -0.015879   -0.015354   -0.014836   -0.014347   -0.013900
         -0.013098   -0.012465   -0.012485   -0.012846   -0.012924
         -0.012635
SWEEPD(ISEG)
          2.958872    0.356362    0.356326    0.356326    0.356326
          0.356326    0.356326    0.261586    0.144326    0.144312
          0.144312    0.144312    0.144312    0.144312    0.114311
          0.110175    0.110089    0.113463    0.139445    0.140790
TWRD (Blade root twist at zero collective in degrees)
         23.126163
TWSTGD(ISEG)
         -1.400898   -1.888081   -1.888083   -1.888082   -1.888082
         -1.888082   -1.888594   -1.719146   -1.510795   -1.510128
         -1.510134   -1.510134   -1.510134   -1.510743   -1.371702
         -1.363521   -1.343015   -1.462911   -1.831199   -1.777409
ANHD(ISEG)
          3.365935   -0.225255   -0.225305   -0.225305   -0.225305
         -0.225305   -0.225305   -0.177661   -0.118693   -0.118686
         -0.118686   -0.118686   -0.118686   -0.118686   -0.202827
         -0.214427   -0.214668   -0.231920   -0.447944   -0.714671
THICKND(ISEG)
          0.257890    0.222789    0.207908    0.192922    0.178487
          0.163709    0.148198    0.133404    0.120694    0.111326
          0.105294    0.102243    0.100651    0.098859    0.096506
          0.093412    0.090842    0.088933    0.087727    0.090531
KFLAP(ISEG)
20*0
FLAPND(ISEG)
20*0
FLHNGE(ISEG)
20*0
FLDEFL(ISEG)
20*0
NCAM
0
NCHORD  NSPAN  ICOS
  1      40    0