bladebd.inp
 ISTRM
   0
ISTRIP   IFPC  IAERO
  -1      0      1
ICOMP   IRVFLO  ISTFLO
  1       0       2
 IART   HINGE  PRECONE
  0    0.000   0.000
 NMODE
   1
 NMDFLP   NMDTOR  NMDLAG  NMDELG
   1        0       0       0
 IFXMDE IRIGID
   0      1
 FREQMD   GMASS     for Mode 1
  1.000   0.76e-04 
 NRBARS
   51
 RBARS(IR), IR=1,NRBARS
   0.000   0.020   0.040   0.060   0.080   0.100   0.120   0.140   0.160   0.180
   0.200   0.220   0.240   0.260   0.280   0.300   0.320   0.340   0.360   0.380
   0.400   0.420   0.440   0.460   0.480   0.500   0.520   0.540   0.560   0.580
   0.600   0.620   0.640   0.660   0.680   0.700   0.720   0.740   0.760   0.780
   0.800   0.820   0.840   0.860   0.880   0.900   0.920   0.940   0.960   0.980
   1.000
  Rigid flap mode
   0.000   0.000   0.000   0.000   0.000   0.000   0.000   0.000   0.000   0.000
   0.000   0.000   0.000   0.000   0.000   0.000   0.000   0.000   0.000   0.000
   0.000   0.000   0.000   0.000   0.000   0.000   0.000   0.000   0.000   0.000
   0.000   0.000   0.000   0.000   0.000   0.000   0.000   0.000   0.000   0.000
   0.000   0.000   0.000   0.000   0.000   0.000   0.000   0.000   0.000   0.000
   0.000
   0.000   0.000   0.000   0.000   0.000   0.000   0.000   0.000   0.000   0.000
   0.000   0.000   0.000   0.000   0.000   0.000   0.000   0.000   0.000   0.000
   0.000   0.000   0.000   0.000   0.000   0.000   0.000   0.000   0.000   0.000
   0.000   0.000   0.000   0.000   0.000   0.000   0.000   0.000   0.000   0.000
   0.000   0.000   0.000   0.000   0.000   0.000   0.000   0.000   0.000   0.000
   0.000
   0.000   0.020   0.040   0.060   0.080   0.100   0.120   0.140   0.160   0.180
   0.200   0.220   0.240   0.260   0.280   0.300   0.320   0.340   0.360   0.380
   0.400   0.420   0.440   0.460   0.480   0.500   0.520   0.540   0.560   0.580
   0.600   0.620   0.640   0.660   0.680   0.700   0.720   0.740   0.760   0.780
   0.800   0.820   0.840   0.860   0.880   0.900   0.920   0.940   0.960   0.980
   1.000
   0.000   0.000   0.000   0.000   0.000   0.000   0.000   0.000   0.000   0.000
   0.000   0.000   0.000   0.000   0.000   0.000   0.000   0.000   0.000   0.000
   0.000   0.000   0.000   0.000   0.000   0.000   0.000   0.000   0.000   0.000
   0.000   0.000   0.000   0.000   0.000   0.000   0.000   0.000   0.000   0.000
   0.000   0.000   0.000   0.000   0.000   0.000   0.000   0.000   0.000   0.000
   0.000
   1.000   1.000   1.000   1.000   1.000   1.000   1.000   1.000   1.000   1.000
   1.000   1.000   1.000   1.000   1.000   1.000   1.000   1.000   1.000   1.000
   1.000   1.000   1.000   1.000   1.000   1.000   1.000   1.000   1.000   1.000
   1.000   1.000   1.000   1.000   1.000   1.000   1.000   1.000   1.000   1.000
   1.000   1.000   1.000   1.000   1.000   1.000   1.000   1.000   1.000   1.000
   1.000
   0.000   0.000   0.000   0.000   0.000   0.000   0.000   0.000   0.000   0.000
   0.000   0.000   0.000   0.000   0.000   0.000   0.000   0.000   0.000   0.000
   0.000   0.000   0.000   0.000   0.000   0.000   0.000   0.000   0.000   0.000
   0.000   0.000   0.000   0.000   0.000   0.000   0.000   0.000   0.000   0.000
   0.000   0.000   0.000   0.000   0.000   0.000   0.000   0.000   0.000   0.000
   0.000
